108
#Comment!
LJ  -0.042534052296667547   0.34138622553545334   -0.49703998183923542
LJ  0.40291080669051577   -0.16094013328648274   0.38043556821600399
LJ  0.40368362513400646   0.22034991344897414   -0.28639958052223702
LJ  -0.056172609370202395   -0.22657546641288442   -0.069564079949325577
LJ  -0.23800786538117125   0.12324517389373206   -0.2158504607945331
LJ  -0.31899802208540212   0.45408917771513979   0.3812358416997354
LJ  0.34236714427166487   -0.2710090977692215   -0.42579941888311834
LJ  0.4608310327034062   0.30634267777290103   0.2651572244543523
LJ  -0.15263247889517154   0.21043367490672604   -0.39311121928602444
LJ  -0.011609373643397917   -0.30570081743900018   0.43947493943357951
LJ  0.15100319871351081   0.29505361568227978   -0.48774723704800438
LJ  -0.21901702650373736   0.26180454226361694   0.42213828065718723
LJ  0.087749771609458238   -0.2900108817996252   -0.18600098182075936
LJ  0.44130480710278253   0.03986442290130026   0.1767742214969103
LJ  0.26004886505173985   -0.031761234416068554   0.00056145624178299174
LJ  -0.21482818106911034   0.040786796699616983   0.39317251699408406
LJ  -0.2830489111944674   0.42471623301293016   -0.11433515724782903
LJ  -0.42274964362127604   -0.32785840195981786   0.32335619619635292
LJ  0.18558884829105715   0.2235255239155764   -0.26764125148870188
LJ  -0.27301127638475597   -0.31246450208326976   -0.097871569535315658
LJ  0.28995257119187073   0.049614809643495385   -0.23517507564900128
LJ  0.2663394962731771   -0.17614499278962464   -0.27228235508901977
LJ  -0.30832773783880207   0.34713542784504492   0.20956778189242217
LJ  -0.37088711757365117   0.20576403506544641   0.30363577124594521
LJ  -0.42369896883929198   0.20513307073150938   -0.17196569765071579
LJ  -0.4173776425145303   0.010365598838443875   -0.42199482110494946
LJ  -0.1146299059779524   0.12184332313355214   0.21813872271702978
LJ  -0.16087200783060157   -0.028704750783782755   -0.42104969149483734
LJ  0.078699167067038417   0.065852859899390395   -0.24184210317940932
LJ  0.39440347328450431   -0.061182094446371522   -0.43332956017512037
LJ  0.002663392364009704   0.35981445473273643   -0.040972376789673297
LJ  0.019425344554240317   0.095627342464003021   0.48193702405555611
LJ  -0.072104277939222763   0.38458504198028243   -0.23696388742462152
LJ  -0.28795758946470446   -0.14044820055666812   0.32917423661954975
LJ  0.1753061532413886   -0.13418474601886851   0.46182662145181447
LJ  0.49369982648573041   0.49063992951699037   0.23403203194693611
LJ  -0.18267559067563749   0.48006626525224705   0.12524251700073127
LJ  -0.43612430206793573   0.27418616511168559   0.10727851943341013
LJ  -0.17666613561028   -0.38043724830772085   0.32886122103382437
LJ  -0.22519526262888373   -0.19907274515289314   -0.46604178944779945
LJ  -0.1008141072035685   -0.023582567741079166   -0.2127726147695739
LJ  -0.14728917753782844   -0.49094522249134093   -0.4961662441447634
LJ  -0.2439629577366241   0.024810556329954148   -0.043189129447860186
LJ  0.38323426546133116   0.29385985074654825   0.0090706434436252162
LJ  -0.036095754752551668   0.19524887897369858   -0.14248251152797409
LJ  0.45923789038712481   0.48798849950083695   -0.04454867829263387
LJ  -0.48838162690319425   -0.33499374805185766   0.045000412347337711
LJ  0.31996715857814356   -0.3919796747023841   0.066971287941694865
LJ  -0.078442698463684263   -0.19992045927741431   0.25234211853217547
LJ  0.42253311832168222   -0.3797278715728164   -0.17462403989074726
LJ  0.49838829028685999   -0.17603939520224279   -0.18481444431295238
LJ  0.43470977630690172   -0.44396676373163385   -0.38630876970204858
LJ  0.047538460084038357   0.43782080137582102   0.17290218115544095
LJ  -0.34720662038263794   0.04655538999346312   0.17600127215850245
LJ  -0.11687089549817514   -0.23520107751505953   -0.27337455637452668
LJ  -0.055409277544088739   -0.41156452657583792   -0.34424372252113722
LJ  -0.28023739930774655   -0.101871097825577   -0.28226219223640198
LJ  0.16581081611261891   0.19125228985891404   -0.063254349758055856
LJ  0.046828702666661726   -0.054594914259676088   0.12374981208775576
LJ  -0.45752651161032271   0.41685115518618099   -0.24049565193822073
LJ  0.37031530147009056   0.23184339004144003   0.48597385985576336
LJ  0.26809771960814066   0.46534441426135614   0.24925286900147475
LJ  0.15108507826425555   -0.31847160926156703   0.26284249739722348
LJ  0.24816065853529454   0.095868758909165158   -0.45638037474128607
LJ  -0.24040548622887276   -0.43793249876688323   -0.28694428206601663
LJ  0.063639190561195352   0.25947550253757762   0.24710243482285393
LJ  -0.063367519384865539   -0.081329737445027597   0.40665254284299945
LJ  -0.0096623321737156903   0.13187747943522274   0.046508706986058086
LJ  -0.40345279696131159   -0.14455455477570001   -0.0034419239808599761
LJ  -0.43572354073844499   0.075732311487028081   -0.0052870924939105316
LJ  0.19425968388923187   0.32008482438827107   0.071961361774979124
LJ  0.36371407280718232   0.12159711068182875   -0.05646952029496808
LJ  -0.37260521763846166   0.47922691538613282   0.072119813987894993
LJ  0.064631631005221554   -0.057913553602979909   -0.38942124729517735
LJ  0.48680978378481543   0.023986905521311327   -0.24732166064638764
LJ  0.49640070602009218   0.03683305948124059   0.3869534745038421
LJ  0.11909611502933277   -0.4338671038295025   -0.0017363324799516231
LJ  -0.40828126842466766   0.4258737678891662   -0.43644158859746057
LJ  0.22478898957015803   -0.10619347306367025   0.21790935061276587
LJ  0.41495529318558766   0.43646353004472555   0.43278797091123211
LJ  -0.24575587531957155   0.35964764897203205   -0.31689890568343382
LJ  -0.04876081304315355   -0.44857867254371997   -0.10780613891524318
LJ  0.087760878934409564   0.04179230227588631   0.29079584517875473
LJ  0.37860146555098889   -0.34556054904391337   0.2616276708684997
LJ  0.31107222214762226   0.38181385147198277   -0.37447443575232464
LJ  0.093321574129599655   -0.089204428092145932   -0.11913334042698842
LJ  0.30305101755612923   0.035192783385123216   0.32449437350249455
LJ  0.3478835991798907   -0.18492419129761364   0.094560827096221489
LJ  0.30786590790847707   0.35792853516755407   -0.15837511660891335
LJ  0.2559465388064241   0.27324094187784842   0.30138829182848931
LJ  -0.30137447527649475   -0.32846672890131418   0.13161650009207276
LJ  0.035337819050171221   -0.47060251577553119   0.3284745341760128
LJ  0.248306445777982   -0.42597221906604638   0.48384514923037186
LJ  -0.32684300648101855   -0.38967712711758018   -0.48659940481304015
LJ  -0.070851287673842453   -0.35717579634405916   0.094081876051071003
LJ  -0.3749587648482029   -0.29276588858468328   -0.2853435712454821
LJ  -0.15096156767847463   0.28868168320007148   0.095819625900247896
LJ  -0.15174273721581058   -0.095445587525563882   0.11349279251215656
LJ  0.25924220790413149   -0.27244645037838217   -0.097105441011138854
LJ  -0.39845751207758934   0.21573078336740847   -0.45876517600727029
LJ  0.077889556827602457   0.46555914847495217   -0.43801939412822488
LJ  -0.11254693392866666   0.40994463490271471   0.32314683756342621
LJ  0.2667125507536367   0.13714158922362601   0.11474434335946981
LJ  0.13521152886522544   0.45681859462816649   -0.2141689681319974
LJ  0.12014819252310968   -0.23651064540012645   0.040644142266556917
LJ  0.11726666711111303   -0.27006765588642456   -0.39039605003131672
LJ  0.26185506015157939   -0.4090517042384727   -0.3009993592625706
LJ  -0.43053931825174069   -0.16671886825739007   0.19620841323306834
