108
#Comment!
LJ  0.20187630090205289   -0.35122058455903588   -0.018695248304698632
LJ  0.30970773819849967   -0.4426522845012722   0.45670779847684156
LJ  0.42896628711408147   -0.34978628476385903   0.26653829192983769
LJ  0.028826772224052707   0.095641656089336141   0.23066852133765506
LJ  -0.44056139347344503   0.44833083328030138   -0.39129114825867867
LJ  0.36782301183012317   -0.46015536093486559   -0.2560293098833058
LJ  -0.25015853669414512   0.47466301666263566   0.16998682754253044
LJ  0.33387224220722322   0.031110796113709767   -0.0719092538535029
LJ  -0.10395325028334271   0.3310370455886833   -0.14104652971371046
LJ  -0.40250396145437206   -0.4101767664338748   0.42663277210977274
LJ  -0.49258567530810632   -0.25951146317626245   0.40915852856221496
LJ  0.15808174266668448   -0.38280111773965397   -0.33740727243172502
LJ  0.1699628555707384   -0.36302507987035049   0.4946647169509597
LJ  -0.41055012276895575   -0.075720395621561867   -0.35771794206599727
LJ  0.00046680349982941853   -0.098190586345013528   0.2305448907308319
LJ  0.080374942664332302   0.47320467082296852   0.38680466809272707
LJ  0.18489589940173162   -0.36215305429787314   -0.10058318674854944
LJ  0.194143665462506   -0.43601205836530549   -0.032818127745190745
LJ  0.42646467231085899   -0.18679784928333446   0.38913491572483166
LJ  0.43099801138791094   -0.29395913182420902   0.027297453629336152
LJ  -0.11039753967237753   -0.21937608635603301   0.32717619227441413
LJ  0.20315818821459408   -0.16733521782569072   -0.16922884110058831
LJ  0.21814890843164547   -0.48546783356952095   0.44007642006804948
LJ  0.21301725612021583   0.47439535488420681   0.33824358611131955
LJ  0.35655080029076575   0.26656827004874467   0.44197859702814324
LJ  -0.24734481353046264   -0.34244945028086593   0.16648147508656805
LJ  0.22946593193321016   -0.10805822634179971   0.0068393630219282416
LJ  -0.42998872059472404   -0.11960763874409285   0.42763989454193263
LJ  -0.35266012819556691   -0.46262969431150397   0.10094131041231476
LJ  0.2671232249271378   0.43041280192056136   -0.4449942403450734
LJ  0.046840582050836271   -0.106440115579787   0.32322045186756276
LJ  0.21920092885954606   0.027878423616332294   -0.037359638314575123
LJ  0.34036083139793688   0.10625143032741188   -0.44243260764379777
LJ  -0.022028007817956163   -0.37280354377316294   0.37483145957845337
LJ  0.47434047939157498   -0.41571117411168212   0.24149709461327343
LJ  -0.38981010349692813   0.075736530722367773   -0.27397052748423195
LJ  -0.33301610762798206   -0.0072963137392949582   -0.059592442261040962
LJ  0.27806887960068755   -0.35081043405178292   -0.23119712400967041
LJ  0.32826945160289495   0.05027597670319435   0.076011677592838528
LJ  0.3302461094020015   -0.35047558758255065   -0.33399391607783135
LJ  0.1428302293210266   -0.14668578776272886   0.42492842894563521
LJ  0.12360948515483565   -0.42021348960120342   0.42953772394157735
LJ  0.19463631955584237   0.23515635397026427   0.057229208621338637
LJ  -0.4396826523068037   0.02049043459214521   0.43321406585021371
LJ  0.33393812406777701   -0.10746366141309543   0.33859544021973575
LJ  0.48370892504157881   -0.46126827706234647   0.35296893167826671
LJ  0.43279747244647254   0.21720762975681335   -0.10314362389860943
LJ  0.26424841846140362   -0.0039066906735276095   -0.3778311401990912
LJ  0.045408377293956088   0.46218856741261155   -0.0053237275821837312
LJ  0.0001520499618233752   0.37703337661529157   0.41095052696119139
LJ  0.2355905564163808   0.034334674619459223   -0.46000738229563465
LJ  -0.066407350312061714   0.25840747740388975   -0.28698624275887824
LJ  -0.038513200692490833   -0.18179684120924383   -0.36029252126272643
LJ  -0.30614575661737137   -0.39333140441013748   0.080847087958869537
LJ  -0.10444339690938607   -0.088685192966366774   0.29203021311006599
LJ  -0.10666376123411102   -0.32053837353783071   -0.43272789104619502
LJ  -0.16392322846906021   -0.27741300579064926   0.32790143741137867
LJ  0.33174867804169461   0.12470499254451864   -0.26727352009905947
LJ  -0.18609288244237154   0.12091283709660436   0.46680336789702642
LJ  0.28221715362663097   -0.45216252758924169   -0.20283885895256842
LJ  -0.23281853114009637   -0.43523894891283144   0.14855876275441435
LJ  -0.14327582033807407   0.061670396227835253   0.39711828005136374
LJ  0.12383321142208552   -0.30413586590678576   -0.29286445386535831
LJ  0.044773221861544858   0.24397921074479587   -0.088674947765914558
LJ  -0.090395047626458197   0.07956387332965599   0.30431716303188389
LJ  0.14393950970500433   -0.45147660267294143   -0.48490209550840591
LJ  -0.43133287087762789   -0.16849292784395803   -0.031848246752576095
LJ  -0.32193898137437144   -0.13607227394090721   0.47655571892261062
LJ  0.060072164828346007   0.17786143272174076   0.31846509487145391
LJ  0.3454457350312416   -0.021754081345241601   0.097784324954052912
LJ  0.42717508875412874   -0.2634423034411168   -0.33077285492678538
LJ  0.20782300592377556   -0.45331552504290318   -0.15054433230263942
LJ  0.43029163655952485   -0.4729327041294335   0.49275560025438953
LJ  -0.41111231026816569   -0.048662507608571361   -0.21720287945320366
LJ  0.24089957937965364   0.018939028910603711   0.26669988429611718
LJ  -0.37782723219425901   0.49791058640626551   -0.23966746841713829
LJ  0.055901673587856922   -0.12979817646908873   -0.065766313856223751
LJ  -0.19859787166225329   0.019210292625759601   0.24596268442410907
LJ  -0.44606496931289119   0.2790856589068248   -0.23893778444981864
LJ  -0.099768412213494584   -0.10301364457432174   -0.15542952253580924
LJ  0.11740281884540127   -0.11513838051242703   0.25089581609325695
LJ  0.32274218275210959   0.38515581562662404   -0.24504361784567491
LJ  -0.046504518784781138   -0.2786087767996589   0.31151136013995667
LJ  0.051773004962572589   0.41532683324940528   -0.31262659241831453
LJ  -0.17629417251594706   -0.18498969247536345   0.042546642029152003
LJ  0.24047147061909288   0.21712858183064959   -0.0089252744770371897
LJ  0.25457638114478814   -0.018494347709041022   0.012942367914892536
LJ  -0.1434373714175414   -0.4919974079672933   0.03723304086469683
LJ  0.30708197503961132   -0.18697420218051697   -0.20086028286261137
LJ  -0.16524462747709417   -0.05515992884943606   0.17420976100308441
LJ  0.27986124747514907   -0.39098333219325743   -0.14762655195338609
LJ  0.068313262983987405   0.48836950085066633   0.19516947414331259
LJ  -0.42429218390763662   -0.0092608019877933948   -0.38869582962132976
LJ  0.28472204308358079   -0.43110216701154552   -0.27827908135467455
LJ  -0.3429365781467138   0.13590438778184621   0.32711702613256011
LJ  0.30199286860607544   0.40760087364949921   0.3208818824161262
LJ  0.068456660809048747   -0.22523601138684857   -0.26581283786074789
LJ  0.09782173198752174   -0.28128801101047424   0.288026642095077
LJ  -0.19806304715400555   0.24616460632017842   -0.28798618169396412
LJ  -0.29550319691323246   -0.16887874819645382   0.1948516646252241
LJ  0.29332402671362667   -0.13858528417953209   0.096721705369453959
LJ  0.1738082440536878   0.31857851096188561   0.068677152866665647
LJ  0.40241284024251961   -0.48529317838324904   -0.073731100385005327
LJ  -0.45754320612775612   -0.27654311547104071   0.49021855128742242
LJ  -0.26812355376928976   -0.22770235862104973   -0.16890597024133466
LJ  -0.10311995179722995   0.45256568633183752   0.21844873287411049
LJ  -0.30398553384026061   0.34253677310480041   0.45752116402824655
LJ  -0.46144331364189245   0.3651646909536122   -0.23147735270538036
