108
#Comment!
LJ  -0.042928792408658205   0.34117831633341111   -0.49659216505353315
LJ  0.40295264310666612   -0.16130839916289227   0.38055689553151278
LJ  0.40380015839013772   0.22069362962235034   -0.28636601073970797
LJ  -0.056179292644574025   -0.2269934693122003   -0.069539961768985109
LJ  -0.2381173915291854   0.12335525130274298   -0.21574502355952635
LJ  -0.31913888909537647   0.45426565705501143   0.38103348006391546
LJ  0.34228016795531374   -0.27086119030980094   -0.42567063253956411
LJ  0.46066893961547423   0.30635778319459883   0.26526048882570236
LJ  -0.15264569594587626   0.21056307658050608   -0.39336301075932745
LJ  -0.011438889585687942   -0.30599930910653439   0.43978045567222851
LJ  0.15078115000553874   0.29544360755007459   -0.48761441704032743
LJ  -0.21885901973654626   0.26191543936691908   0.42187419079035821
LJ  0.087970977464367522   -0.2896697848423771   -0.18582478570941824
LJ  0.44128335997588725   0.040150871188159645   0.17667947007621171
LJ  0.25993047733471936   -0.031498359417585185   0.00082587107687194137
LJ  -0.21514652811749999   0.040798130676692655   0.39323562434098641
LJ  -0.28288064255410728   0.42471887444030604   -0.11424719541884501
LJ  -0.42216805276251962   -0.32796694458802145   0.3232563553114387
LJ  0.18553800021988043   0.22321406152027831   -0.26760626040112295
LJ  -0.2732590062060401   -0.31222265025232421   -0.098035598238100263
LJ  0.2901629983037462   0.04952717343612028   -0.23527635186164475
LJ  0.26633047709265656   -0.17614272492165986   -0.27230964254420575
LJ  -0.30827137805194876   0.34690000746037108   0.20971418119064336
LJ  -0.37082142515849498   0.20549129945451033   0.30364712172525965
LJ  -0.42345129068332471   0.20525630171411197   -0.17199547070941523
LJ  -0.41709628278662703   0.01030435394819464   -0.42203293392758007
LJ  -0.11442861344825152   0.12192814632455648   0.21835548984990055
LJ  -0.16098966618914354   -0.028808556428771455   -0.42103501400525606
LJ  0.078890083746692569   0.065734137135703641   -0.24185657706834773
LJ  0.39449964030434553   -0.061129740312989733   -0.43345155985054412
LJ  0.0025021656360549299   0.3598790793391074   -0.040865913917166471
LJ  0.019464262524961792   0.095854798501096919   0.4818019923105083
LJ  -0.071848337563471851   0.3845442217267061   -0.23698639032402799
LJ  -0.28812262390638838   -0.14074639406197156   0.32903943333487934
LJ  0.17573746407414398   -0.13415705942093301   0.46178505388642371
LJ  0.49382613524320446   0.49060270640759979   0.23427598437849909
LJ  -0.18269342335601482   0.48012776549223946   0.12513466423079747
LJ  -0.4365760964412011   0.27402909299955996   0.10736873788501688
LJ  -0.17652989797567112   -0.38020060681158219   0.32893579740523787
LJ  -0.22496546092871886   -0.19871570688340559   -0.46595110010313862
LJ  -0.10040816696158675   -0.023953975277862454   -0.21305661692795946
LJ  -0.14736399994189656   -0.49094104852092446   -0.49558490067683159
LJ  -0.24410967953212559   0.02484077900394227   -0.043562813642022906
LJ  0.38345803467571077   0.2941343823075806   0.0094381435046588195
LJ  -0.036125131070810459   0.19531413047962484   -0.14271671332437441
LJ  0.45905497866478284   0.48821234602978347   -0.044398369896774474
LJ  -0.48859961909838789   -0.33533088616151385   0.045136706345577621
LJ  0.31995257432021879   -0.39196360803959601   0.066760130110561824
LJ  -0.07817726803886195   -0.20003747548725134   0.25256848185783692
LJ  0.42294429201693429   -0.3796074217526566   -0.17439837757148086
LJ  0.4981784102150138   -0.17604689269164714   -0.18490605013114494
LJ  0.43481468261162082   -0.44400962351245166   -0.38633735317019857
LJ  0.047654219391636117   0.43784315395179196   0.17261407714928734
LJ  -0.34734533398494938   0.047040143096161009   0.17607538643500187
LJ  -0.1169804273255947   -0.23521006230345279   -0.273264809005626
LJ  -0.05553148235411532   -0.41131554427248179   -0.34441631456002647
LJ  -0.28001568645096753   -0.10217096976239909   -0.28193332090028866
LJ  0.16615529065653556   0.19134278480920736   -0.063145084136627866
LJ  0.046623421899229023   -0.054901350449009956   0.12363837774111645
LJ  -0.45806930015948388   0.41683445277648168   -0.24034116586294918
LJ  0.37040829604938003   0.23178915009241408   0.48587315038567447
LJ  0.26839935475682497   0.46533940829659198   0.24945935271331299
LJ  0.15109790765138076   -0.31860104800037586   0.26288231090009545
LJ  0.24823465490675861   0.095917331718223295   -0.45633428010107557
LJ  -0.24026509801477286   -0.43815274087339645   -0.28698375679525351
LJ  0.06334401657696484   0.2597453298167296   0.24689945525269133
LJ  -0.063234585512841682   -0.081036061750926536   0.40650809103811075
LJ  -0.0096312768078911006   0.13187014878979453   0.046342318779415623
LJ  -0.40369786510068573   -0.14467268104401929   -0.0033335901630357893
LJ  -0.43590801439194649   0.075907779975720346   -0.0053155995012810226
LJ  0.19424158951728954   0.32017774856267062   0.071813468896962621
LJ  0.36375931915751614   0.1217349698714946   -0.056639387306665234
LJ  -0.3726677140399357   0.47923921325565094   0.071975194175982485
LJ  0.064746686834770389   -0.057951808892168409   -0.38916095713306181
LJ  0.48715302075763689   0.023792834994481239   -0.24750384265669156
LJ  0.49594329566441131   0.036883859587270154   0.38678233851368343
LJ  0.11887759881742917   -0.43379774173754659   -0.0017799299904091115
LJ  -0.40859011482609137   0.42589459770720167   -0.43666789617573742
LJ  0.22485355627665674   -0.1062055629055844   0.21833349077689743
LJ  0.41489441376640918   0.4362787441257277   0.43311810107385013
LJ  -0.24569219753389604   0.35951314959483999   -0.31691611610317799
LJ  -0.048626270012056182   -0.448712503867299   -0.10807100825129402
LJ  0.087640398093102659   0.042262713759652001   0.29080550448182713
LJ  0.37856774429355655   -0.34534812470860804   0.26174801708592776
LJ  0.31105562469465931   0.38180922165927667   -0.37447107731113261
LJ  0.092652281588497976   -0.089140999128226844   -0.1191426076022194
LJ  0.30310695389189057   0.03516194146123696   0.32453278834600791
LJ  0.34795618984155541   -0.18484679310416249   0.094403932817491709
LJ  0.30786679719783805   0.35771209692009998   -0.15850514838844798
LJ  0.25612761246754978   0.27316119612741824   0.30128425960024502
LJ  -0.3011525197694333   -0.328647972743426   0.13183454652430701
LJ  0.035199471336234016   -0.4708604592448884   0.32817595686156548
LJ  0.24809068045642535   -0.42582628414514812   0.48375683999682456
LJ  -0.32659160522232955   -0.38996588275510519   -0.48683908622222583
LJ  -0.071017222044361714   -0.3569788002808908   0.094010496536781785
LJ  -0.37512823905430914   -0.29256135121410132   -0.28559177442379979
LJ  -0.15109953266115736   0.28838977805020882   0.095773469772741676
LJ  -0.15160133867576966   -0.09570617278239088   0.11367393233254641
LJ  0.25905863788759764   -0.27258303234186171   -0.097245105283199865
LJ  -0.39841958316924825   0.21522820334006956   -0.45885120582334865
LJ  0.077640595673570567   0.46554679526985343   -0.43807520440779141
LJ  -0.11254482552425089   0.40981838716025493   0.32332444523319437
LJ  0.26685977440271058   0.13741213148798248   0.11479226055618608
LJ  0.13542853519890527   0.45691826435286453   -0.21417753542573922
LJ  0.11999765450910467   -0.23625929762077519   0.040528129299561448
LJ  0.11720228048433816   -0.27017639561776541   -0.39002551121380613
LJ  0.26174846361060911   -0.40926426440401487   -0.30113520361216611
LJ  -0.43045761799994148   -0.16669521840340479   0.1957692863139826
