108
#Comment!
LJ  -0.024033141708842024   -0.32245786345576721   -0.24113760328657508
LJ  0.16951933520241252   -0.36911831312741117   0.25057840943411619
LJ  0.36822717288380546   -0.16230148629335575   0.31448464396352621
LJ  0.24523123287973456   -0.29825531263962984   -0.32421440330659479
LJ  0.43129636141262367   -0.49910018811446416   -0.071331759112643708
LJ  -0.29411989298683611   0.07539265022103174   -0.051737736527468166
LJ  0.2529086630957455   0.3317715874142852   0.018840284411211224
LJ  0.14112466021854927   -0.23300792044396959   0.25256214862426057
LJ  -0.15957616471059552   0.34198836510134695   -0.33109201500194563
LJ  0.074030721708639946   -0.11250521646512883   0.28817066668218522
LJ  0.090284432514202637   -0.31944602809902228   0.21021798116347543
LJ  0.24832549213906943   0.49055867198074138   -0.0033600224197352928
LJ  -0.03717981320488372   -0.033005796079429842   0.11688550785667573
LJ  -0.45022883791922269   0.24905296693239745   -0.077661002985940322
LJ  -0.18135003357321205   -0.45394643225826475   -0.060726480915911499
LJ  -0.33147111830616077   -0.28247340606714016   0.36812273925651445
LJ  0.078628630230861807   0.004697251435050751   0.4203845977466969
LJ  0.30816009815515555   -0.17010624642031147   0.14672078996221355
LJ  0.30633189695082985   0.050841576648442952   -0.43096646392947507
LJ  -0.18479243453426128   0.16892556058430061   0.10932643895029957
LJ  0.08492385320229362   0.053527842023353693   -0.32822051068593816
LJ  -0.41499108566577259   0.19236886065023756   -0.48210031544145782
LJ  -0.39844817219412987   -0.016231805880370303   0.064510492022792063
LJ  -0.21788838279960354   0.096694688105322751   -0.22170447882494862
LJ  0.34364593483108929   -0.36922687807842963   -0.0081942305123735293
LJ  0.29405053949641136   0.32431079639259219   -0.3856588157521294
LJ  -0.47311595161644321   0.31215253179546643   -0.01805050539147322
LJ  -0.49339349883179517   0.17748565845937667   -0.32375453300842966
LJ  -0.081469718626116128   0.27027531383468506   0.37520042606836823
LJ  0.2939810774498271   0.41121671882240479   -0.058705312939462927
LJ  0.13040745007730509   0.37667985414396427   0.21400580488708151
LJ  -0.047858102944067928   -0.25949583330834824   0.31807559211547726
LJ  0.024748400214556487   -0.0072062722116797515   0.29066288162076925
LJ  0.37948529259855246   -0.22492622567583612   -0.047512124964085509
LJ  -0.2391018605882595   0.46495108422521403   0.42407704219320874
LJ  -0.22838530521856901   0.4302590302199592   0.020971619746822493
LJ  0.15514315225344374   0.087975235061758292   0.39174316578372448
LJ  -0.15970784883688766   -0.071469213993458403   0.24982184500302004
LJ  -0.065950621845221366   0.36104077861634976   0.053432961684568188
LJ  0.20378038292075787   0.10381079878316458   -0.45191334193867272
LJ  -0.41252956948159303   0.21534800215598102   -0.20219401596403561
LJ  -0.24674441240610603   -0.22096356997718394   0.35195894282006135
LJ  0.1090940007840408   0.10933945175603488   0.20687989748815502
LJ  -0.040634386219925635   -0.13312122697058409   0.12786025885888655
LJ  0.10290311145829839   -0.043077472088634147   -0.28238822012719234
LJ  0.15871078247019357   -0.43648202749976606   0.022431901123532248
LJ  0.17431093500563777   -0.3708969139445718   0.3952829124099419
LJ  0.26851347934513964   0.43766009114209475   0.45983738257073542
LJ  -0.048607008865412887   0.42027580492285715   -0.16600791588887276
LJ  0.19707893190439743   -0.20794208596614269   -0.34490275651410923
LJ  0.3191621672680624   -0.051531375669053817   -0.20195491518341663
LJ  -0.15063416086373305   -0.036027244210061558   0.060158851846523857
LJ  -0.020084587676826273   -0.098099729390228277   0.393705233763542
LJ  -0.36696199809121621   0.14002084272012102   -0.44752348059444336
LJ  0.028103998742993831   0.19826492263994708   -0.088197594389538572
LJ  -0.15491753570941225   0.41976693450310287   -0.29792663550786302
LJ  -0.47062090823002917   -0.22881738149241118   0.46652093616423962
LJ  0.47946075338459232   -0.25307285077055164   -0.1020086249525481
LJ  -0.031669212451402307   0.45789477019236735   0.024205638549023172
LJ  0.079298248629851992   -0.28331218670661668   0.49480187094280931
LJ  0.1394647194231291   -0.28469378114977245   -0.18101719408424871
LJ  -0.067388471628005181   -0.33720982630665791   -0.31084507938328165
LJ  0.075105577858711081   -0.029032242863347015   0.3497039305003925
LJ  0.026354453975353558   0.38597271817377626   -0.18814266812187858
LJ  0.45306070559551354   -0.20841977292337513   -0.23794601297012846
LJ  -0.1868965017177453   -0.26274327943277431   0.21548192987245507
LJ  0.091883258365442963   0.29604681610308109   0.10275328577001894
LJ  0.20946103560721735   -0.053150223003893417   0.40740768440919756
LJ  0.21207876669350442   -0.30645277892983869   0.16355711250093338
LJ  -0.44000937199989404   0.21931463627142264   0.40466255488824243
LJ  0.10370507688644091   0.40337612552966617   -0.271512180677007
LJ  0.078853541939341729   -0.44813556902344742   -0.41505822198278519
LJ  0.26549200296806197   -0.31095367647249178   -0.4510868794953361
LJ  -0.064122546290741114   0.47927017426041324   0.20002428173893941
LJ  0.34608426799413855   0.089206066330655989   0.43468088163981322
LJ  0.036000462618451162   -0.079669244541784853   -0.16452609604907817
LJ  -0.062334770911902489   0.016152862131164156   -0.48265123728717385
LJ  0.34828785889660235   -0.19859153907168281   0.23130734376974971
LJ  -0.49466900780771017   -0.31697366456657594   -0.355665371544447
LJ  -0.29352049853518064   -0.3691188007865191   0.35076524542772908
LJ  -0.38089815733559568   -0.42336493573517592   -0.3019089000277137
LJ  0.064249427652639912   -0.48755678849813733   0.32922488591425014
LJ  0.04063862032910219   -0.4817778552362188   -0.19927181332673155
LJ  -0.47198129737513567   0.16164389360425357   -0.0019249312547475613
LJ  -0.21504427071584462   0.25777291121080836   -0.22858579217884337
LJ  -0.41853209952952547   0.37286219776815405   -0.0032134680939980083
LJ  0.3461328229362628   -0.1600402132096696   -0.48527407505809284
LJ  0.4965006724421071   0.24485730923584448   -0.38863016857139004
LJ  -0.061442511489473384   -0.096067706021163601   0.20693283595014458
LJ  0.19973267622539453   -0.13458890150474501   -0.37061966772470351
LJ  0.14347706463197685   0.32074462259592806   0.31801362049062054
LJ  -0.28126989771606725   0.37517656579748782   -0.25452334881987393
LJ  0.44216633543749484   0.013852218698284105   0.46800403182713218
LJ  0.29669054831242347   0.010886777748122044   0.40255678727092059
LJ  -0.096859243553481758   -0.11046425556979556   0.47252916031463232
LJ  -0.18028554850517964   0.050792837329761982   0.16349669048114457
LJ  -0.37449773610130221   0.4051466270853144   0.47295665796366576
LJ  0.27476511275084803   -0.27362750476949388   -0.24987718942885664
LJ  0.39470563300681638   -0.057229018226150327   0.24041000927328754
LJ  -0.48529501950046955   0.14745967607004618   0.36708811148901155
LJ  0.19407647446182796   0.39023619349722094   -0.079591844425978053
LJ  0.14439906915925962   -0.22811575370177264   -0.4167284778979255
LJ  0.38573792102535709   0.20204501953467527   0.47261830382342429
LJ  -0.49858042696549848   -0.23563190194746725   0.1096850536267385
LJ  0.40022723638648855   -0.39352745922241578   -0.40841263483610191
LJ  0.12922608659852575   -0.044415700274847869   -0.40737170552426061
LJ  -0.11624801077642682   -0.41195921894707621   0.16225337757879224
LJ  -0.26308746389666404   -0.30622877651180885   -0.043022867456018569
