108
#Comment!
LJ  -0.45420261296359055   -0.25000495119294791   -0.29778828686611508
LJ  -0.30826091899595753   0.48435372469144922   0.094788012726817611
LJ  0.10831212510431155   -0.23535403833660762   0.21816869251686002
LJ  -0.30956763240651897   -0.15871158686447709   0.25893906764911595
LJ  -0.19030703079989264   0.044600412107513358   -0.35915161931429224
LJ  -0.028502793058980978   -0.15606331964491565   0.10812361385140853
LJ  0.088359619612474294   0.47396295255788939   0.070873945581657632
LJ  -0.41789066720440848   0.28439694141222738   -0.20865685011055651
LJ  0.15477316184554835   -0.26141331134798002   -0.049126920821854811
LJ  0.36012156488560204   -0.034753599203182786   -0.47492112415956678
LJ  0.051662520110327327   0.17270757502219947   -0.14251155366335103
LJ  0.019791052075612648   -0.06616472489172294   0.29476602295197102
LJ  0.34715257559028051   0.33892806592733654   0.34918742976299044
LJ  0.16349652766590778   -0.021024055753030749   -0.11555181899463504
LJ  -0.4513098031336506   0.21762220861339063   0.33724670948330338
LJ  -0.4622121448839776   -0.22991188151957173   0.082910357556258751
LJ  0.096286864654751045   0.22240135498844374   0.34325671506630484
LJ  -0.10138232510658998   -0.43973139066158029   -0.12853653536392051
LJ  -0.013384883224553988   0.35886995488998102   -0.12594521917441584
LJ  -0.32771613778070069   -0.33786057173274731   -0.07655583940102749
LJ  -0.44778551776990599   -0.36264753982066511   -0.46333917315611367
LJ  -0.48762849409529341   0.24517823735537253   -0.033661117676434045
LJ  -0.46974492812800367   0.47919193708495439   -0.11013522740961848
LJ  -0.43019859243354458   0.42026254563839255   0.29436817861418807
LJ  0.44588081262167995   0.042293495436585678   0.31751310648652142
LJ  -0.23465431358211086   -0.49063396300352691   0.27562582733917768
LJ  0.28124681450701389   0.14775382508286711   0.38114898077948289
LJ  -0.33896279207790642   -0.10394139994093236   -0.39320418745103097
LJ  -0.3114562655264807   -0.076093604494326228   -0.14113352965702247
LJ  -0.016510774579558317   0.4176291736121579   -0.4609522497870262
LJ  -0.083869592391956113   -0.25246391042017791   0.28525954498681089
LJ  -0.46803406242189061   0.32637380867664667   -0.49776175135323014
LJ  0.35559307404880469   -0.46771144462358616   -0.46882607368084767
LJ  0.38743205664572405   -0.41446966566395305   -0.23977281527189959
LJ  0.45895761715127431   -0.19603034665064997   0.47700569514385283
LJ  -0.41517442670773885   0.14259703724486369   -0.40984298517657747
LJ  -0.07294658011021056   0.36072970391157805   0.34365136787088885
LJ  0.25084656966495339   0.3308036525052096   -0.056857117335738068
LJ  0.48678681491899434   -0.19641849428032074   0.29128028113830656
LJ  -0.11162022812318928   0.43348608292849644   0.097798068809389418
LJ  -0.28725102442966305   -0.13032659921621786   0.046051700938079608
LJ  -0.24085982352259055   -0.27194454831786252   -0.43388144181045174
LJ  0.42703633383136014   -0.12285111786623934   -0.19842608724854488
LJ  -0.24010821483758329   0.39834372598387979   -0.21296363279001676
LJ  0.016800405477694041   0.028212929784288156   0.022567128117288834
LJ  0.23045181944821522   -0.29611760373367246   -0.22837236388425716
LJ  0.0092363878308144038   0.059514995357101169   -0.29151808971141518
LJ  -0.25650269588760105   0.10030780311101961   0.36115986910068959
LJ  -0.48151354845725514   0.013655175091214276   0.0443036533913592
LJ  0.11985339608158914   0.070747641015126747   0.19354712259239107
LJ  0.33316021258279926   0.13255504196974555   -0.083859963176112717
LJ  0.4220341900059042   0.40719518284211831   0.13767438607102278
LJ  -0.10319739137965608   -0.25123689068585398   -0.077667650239828107
LJ  0.28686893950315145   -0.4858577638669172   -0.078286331573221388
LJ  0.16121470589503326   -0.4966549042017166   -0.39345063840688216
LJ  -0.16703877011266655   -0.10400956458818623   0.37790194835775459
LJ  0.44382457345104531   -0.39334327332971908   0.27244828505702412
LJ  -0.1856004469725992   -0.18226594440226718   -0.26783335964489352
LJ  -0.043528008193649687   0.18689042457996091   -0.49189001668727134
LJ  -0.49461817402423919   0.077699905419359755   -0.18834983164427105
LJ  0.29614111884643946   -0.15600829347398054   0.2488547123795167
LJ  -0.11728241546571726   0.0018833162989045345   -0.14248688105866519
LJ  -0.38930587572599501   -0.052630863097086124   0.41513128594481891
LJ  0.30104933615960222   0.059153206000761134   0.14777456586797597
LJ  -0.2527660172241461   -0.49577866826184996   -0.47130413138881988
LJ  0.14871664531930942   0.16439690094027726   0.022855858849444858
LJ  0.15822643484662724   0.40101929402542724   0.39800868966591535
LJ  -0.3026635140044559   -0.32340636857109767   0.36644088733163455
LJ  0.39380296596699627   0.15999701431116581   -0.3627678745232864
LJ  0.26735342108885629   0.31420120155167408   -0.43420716778743446
LJ  -0.23335252830812031   0.19639599264067031   -0.22171849307011182
LJ  -0.20872807489665368   0.28663143322029144   0.20069163933697609
LJ  -0.48121234836655841   -0.42885500061575932   0.065558778094703785
LJ  -0.11469475156185971   -0.41473844442722069   0.4318074377914215
LJ  -0.44060486918763658   0.4660837424850911   -0.34182939574536714
LJ  0.22315843734560811   -0.45259784524063201   0.25429402860251876
LJ  0.38312056226237412   -0.31559911089565834   -0.052984850348768708
LJ  -0.16178560619149288   -0.0010935143570593416   0.16794593264064656
LJ  -0.28216166290998129   0.36267761708338947   0.41219755224244692
LJ  0.0029556148816530436   -0.34560773886138429   -0.31863768369306811
LJ  0.2772162456486868   -0.30266181444419404   0.11491135866222921
LJ  -0.2740695869715441   0.32016816332128611   -0.01091174124536054
LJ  -0.025803888568655134   -0.35677342836450837   0.06510651773835488
LJ  0.41610109333900802   0.20162313637756243   0.18560360257751576
LJ  -0.071825744601476837   0.12819289915904522   0.32319897724831931
LJ  0.22453056408936783   0.1834310877272147   -0.26033416078076382
LJ  -0.22999155786111999   -0.32217291938311055   0.14646710842345187
LJ  0.34258711182275287   -0.11474004047699832   0.0092478437604395277
LJ  0.085583521630717502   -0.38535332070384576   0.42118986139710435
LJ  0.094959012709508878   -0.4481759183506005   -0.16223118873892714
LJ  -0.39501737270255977   0.25371594133085223   0.1576182883434312
LJ  0.018646835946913944   -0.15523470847876381   -0.24862385562408157
LJ  -0.36301142710265977   0.063737428067143942   0.20220656448555041
LJ  0.17788258763278739   0.38864578959475365   -0.25666575169651257
LJ  -0.29624808821485282   0.10423165555826304   -0.06282027915902251
LJ  0.2719174401044554   -0.30977853070760114   0.37674568591100466
LJ  0.22262521452495546   0.35766304508917207   0.15549024598934766
LJ  0.15694853394187966   -0.085654165954171219   0.091992388516542983
LJ  -0.26624631316125985   -0.37786326964950212   -0.25296480700556678
LJ  -0.24651532152483793   0.28711658333081991   -0.40140868877364311
LJ  0.20586560508092511   -0.1497979321269686   -0.35642237761592516
LJ  0.020198821943470578   0.31150730660887666   0.17842199630092739
LJ  0.38534254295485687   0.36345173289645949   -0.26236770363210421
LJ  0.026396006712953047   -0.48708431815835906   0.24984303911815281
LJ  0.19539363773505913   -0.089233972598057903   0.41470286999259054
LJ  -0.1115132853936166   0.18680116225535762   0.021582759799915741
LJ  -0.053058906674785654   0.27733898358778647   -0.32279928375284028
LJ  -0.032499252372889545   -0.20247797291785413   -0.47923845490130962
