108
#Comment!
LJ  -0.45438805998789078   -0.24997056624593691   -0.29746727759540786
LJ  -0.30807014057721838   0.48447128814272172   0.094875278859405165
LJ  0.10823982380505758   -0.23538810055138037   0.21824464205956373
LJ  -0.30961011127263921   -0.1585843024336076   0.25887370512958396
LJ  -0.19033418205708161   0.044447550782017405   -0.35929546399315876
LJ  -0.028658878850271543   -0.15648113088531401   0.10798792754130805
LJ  0.088508945873758169   0.47388016239055342   0.070736283380080978
LJ  -0.41781555085819772   0.28413179478948075   -0.20891997608115725
LJ  0.15483680159856986   -0.2610991953786298   -0.048915913740111464
LJ  0.36039505825959173   -0.034780595348306978   -0.47510446837901255
LJ  0.051374345227815331   0.17274210615476829   -0.14253227940481844
LJ  0.019961859895097977   -0.066374904288353853   0.29439553073020869
LJ  0.34710748020919074   0.33911705279432613   0.34967420316765441
LJ  0.16389038428943339   -0.02102965373524654   -0.11550409632588417
LJ  -0.45149587987409051   0.2176945596313179   0.33737805197701043
LJ  -0.46205482289505012   -0.23003734031785861   0.082999683795612747
LJ  0.096198180702784727   0.2222605454007236   0.34342782237614328
LJ  -0.10125938341237475   -0.43958127205345088   -0.12844690300972822
LJ  -0.013307742733381391   0.3590789737587729   -0.12597646425330486
LJ  -0.32764679917505607   -0.3378256693456454   -0.076515302207201763
LJ  -0.44783818863172298   -0.36252330306316166   -0.46315421841439092
LJ  -0.48753528517796935   0.2451028350407303   -0.033414299366517783
LJ  -0.46992906316949573   0.47920754414780414   -0.10989719167944952
LJ  -0.43017490938621455   0.42023501312090261   0.29411492383869964
LJ  0.44585250783432023   0.04258708749110475   0.3173166365810618
LJ  -0.23490125066897707   -0.49047630695958205   0.27523702195309951
LJ  0.28131926711576499   0.14730881086738795   0.38088900250803637
LJ  -0.33930656652887481   -0.10419334847848387   -0.39280720079776754
LJ  -0.31176402346524323   -0.076040305155386678   -0.14099862974597349
LJ  -0.016598599518840223   0.41745045538313896   -0.46063463965079193
LJ  -0.083954373599225515   -0.25240111765235662   0.28505772702256776
LJ  -0.46789836160258597   0.32635453952641935   -0.49751645817620382
LJ  0.35556929944401433   -0.46757925778851073   -0.46850468628901104
LJ  0.38738127731619731   -0.41438985011519014   -0.23992609658515529
LJ  0.45894600681326325   -0.19598932073732417   0.47721322793730486
LJ  -0.41497361847554698   0.14262716188056887   -0.40989811447771907
LJ  -0.072816954980419443   0.36056354827547787   0.34317392349663051
LJ  0.25092661926833559   0.33076605428235256   -0.056901194295337146
LJ  0.48678553446583228   -0.19615165715363053   0.29128949085782863
LJ  -0.11139585972020241   0.43360623127636472   0.097921849735504857
LJ  -0.28699874237745121   -0.13067038191278485   0.045710265016277583
LJ  -0.24081818286221271   -0.27203794835190864   -0.433917539266994
LJ  0.42699736852651543   -0.12258971837752553   -0.19829142842378411
LJ  -0.23996576795369312   0.39826138093180447   -0.21284008302370133
LJ  0.017059156289025736   0.028660054873950142   0.022432824746114629
LJ  0.23028086645207479   -0.29608815013310663   -0.22842346928755947
LJ  0.0087458346462042681   0.059647685928807218   -0.29159896950554054
LJ  -0.25655311557568033   0.1005009123340839   0.36106691924800643
LJ  -0.48138931367831272   0.013605794187773383   0.044287319137420372
LJ  0.11963306673004974   0.070661910040668588   0.19351215992029291
LJ  0.33308610252810134   0.13245404631132499   -0.083760617458580849
LJ  0.42213932356208905   0.40759265144968421   0.13754179024539623
LJ  -0.10334947641677836   -0.25137513719790566   -0.077708500815840062
LJ  0.28744269358115487   -0.48572456381603124   -0.078817205685190309
LJ  0.1610749527770528   -0.49648216194566852   -0.39371887636282549
LJ  -0.1668966978708146   -0.10386804038086411   0.37834111603999165
LJ  0.44405816834026524   -0.3934533673113163   0.2724210774428486
LJ  -0.18560232204782404   -0.18251837501725143   -0.26826978362092607
LJ  -0.043379151982560656   0.18692630908705959   -0.49192117234031135
LJ  -0.49460095283200478   0.07793138056539746   -0.18823488241603117
LJ  0.29608978709818334   -0.15584450898750171   0.24891129886021746
LJ  -0.11722554324390345   0.0015284171676211553   -0.14214033551159269
LJ  -0.38932063925964644   -0.0527556977368785   0.41486624564012103
LJ  0.30126348001645625   0.059338151316936018   0.14773546842214808
LJ  -0.25259218309560622   -0.49579957467296504   -0.47136606220878829
LJ  0.14842980603747002   0.16439420246605024   0.022943561541481097
LJ  0.15836337581548562   0.40114590259314958   0.39800391870151142
LJ  -0.30286942957085472   -0.32365151956753818   0.36649731432647287
LJ  0.39407670551720131   0.15990169954495378   -0.36280333873786103
LJ  0.26731735743412882   0.31419368207783616   -0.43435006018089806
LJ  -0.23339507552988611   0.19616345478752206   -0.22201397102920761
LJ  -0.20856911848322254   0.28690960081680233   0.2008236221137662
LJ  -0.48102601035851772   -0.42863692739763343   0.065449610522808802
LJ  -0.11449694425625684   -0.41497652106916821   0.43194701908505773
LJ  -0.44081799030565549   0.46575142886298548   -0.34161958429660638
LJ  0.2229850047676985   -0.45255979479817304   0.25414202447885614
LJ  0.38301335704216721   -0.31534955418752225   -0.053281974632352291
LJ  -0.16159100351656899   -0.0013508595315974955   0.16797601683018212
LJ  -0.28240953790758783   0.36251558863712863   0.41233403147538866
LJ  0.0026974426436129589   -0.34544973133011642   -0.31881112674637302
LJ  0.27701931842662386   -0.30300711378782264   0.11550162071464384
LJ  -0.27455065922832445   0.3198157121644431   -0.010993583717650449
LJ  -0.025693101017302811   -0.35699466047049111   0.064580227154307626
LJ  0.41613416131390946   0.20169118161340896   0.18564310626920763
LJ  -0.072075963401193086   0.12786523147791165   0.32329471613928923
LJ  0.22479106442848304   0.18371265529661338   -0.26049419219632147
LJ  -0.22976129972871806   -0.3221118682206901   0.14652009868515803
LJ  0.34255198228249994   -0.11471839069436746   0.0091033573657822719
LJ  0.08546100870177234   -0.3855187387280869   0.42128098430401201
LJ  0.095106987109923116   -0.44839259085802913   -0.16225727983096769
LJ  -0.3950079214962407   0.25392717639140805   0.15754680832529228
LJ  0.018339286618978632   -0.15523396237012591   -0.24862407947188042
LJ  -0.36310921976240695   0.063759148723714937   0.20237040835187825
LJ  0.17768467011189287   0.3886984968517796   -0.25660240713689192
LJ  -0.29605422922336794   0.10401229191282985   -0.062821658055320848
LJ  0.27194082038857864   -0.30946547180186151   0.37659308801760499
LJ  0.22277077330691297   0.35754940368547239   0.15585763382520898
LJ  0.15715308818367901   -0.085770667964894229   0.092062311359810745
LJ  -0.26655233468196188   -0.3777498542223291   -0.25287766231555331
LJ  -0.24654491326795125   0.2868365147639983   -0.40120260821611914
LJ  0.20579439896635185   -0.14929560286632415   -0.35647561377825798
LJ  0.020157980426835597   0.31133490939814268   0.17856685102376152
LJ  0.38543410395592642   0.36385423184140026   -0.26223224145715757
LJ  0.026084467919830805   -0.48667390130769456   0.24967606729601879
LJ  0.19589586556257044   -0.089274348547113802   0.41471930354958525
LJ  -0.11156729481445335   0.18655756473039212   0.021793888228402388
LJ  -0.053045307373415888   0.27731724603092811   -0.32292926217049184
LJ  -0.032809146460211394   -0.20236245281846718   -0.47913054721620885
