108
#Comment!
LJ  0.20165827121823524   -0.35098415101578656   -0.018747528300411747
LJ  0.30928425478204075   -0.44238380137565869   0.45688157852694128
LJ  0.42921941597794194   -0.34986746969371418   0.2663261536049214
LJ  0.029300912716908857   0.095597873087708868   0.2306875188479883
LJ  -0.44051341431246682   0.44801852625390198   -0.39133036838458313
LJ  0.36783500231451038   -0.46036517886487643   -0.25603873263140492
LJ  -0.25008533684667933   0.47460434071223279   0.17008283867294216
LJ  0.33424687703655331   0.031094082093852293   -0.071949155709147825
LJ  -0.10401707665790191   0.33098196284816789   -0.14096350938917576
LJ  -0.40252144803220402   -0.40989353009065421   0.42648414020866909
LJ  -0.49250467670182124   -0.25970000333822751   0.40901872844707776
LJ  0.15796409741442322   -0.38257969511625528   -0.3376348286782333
LJ  0.16973250387075464   -0.36316368999790255   0.49467764530575781
LJ  -0.41065343399021381   -0.075923741243613799   -0.35764552128571186
LJ  0.00074231684951663426   -0.097968166852922298   0.23055502495088512
LJ  0.080046035436843826   0.47313642634324382   0.38695242845004035
LJ  0.18482873144584425   -0.36178669665766527   -0.10072183320642948
LJ  0.19409252111788761   -0.43629506530559226   -0.032520731631158588
LJ  0.42654021461196262   -0.18692525706035543   0.3892794367933653
LJ  0.43114642484502474   -0.29405090581771476   0.02718000958679782
LJ  -0.11066817366189136   -0.21932145739119766   0.32716108985735637
LJ  0.20310263960805694   -0.1677060335802692   -0.16945921456691762
LJ  0.21788699535543388   -0.4852874867647875   0.43980201060317264
LJ  0.21299016177921945   0.47444535457467257   0.33822329392610029
LJ  0.35640914575267191   0.26648966212715108   0.44145863396732682
LJ  -0.24743451616145828   -0.34228894997762804   0.16634405907184513
LJ  0.22989136407259134   -0.10815669554647322   0.0067827280735428255
LJ  -0.42990756693459031   -0.11938380825833164   0.42780219551689741
LJ  -0.35274376163650922   -0.4628471950185552   0.10114437973039486
LJ  0.26743502159049332   0.43029755269493281   -0.44528020976373894
LJ  0.046698781348524003   -0.10642817921729197   0.32319278349400588
LJ  0.21930430890644292   0.027838499545174353   -0.037291516441917888
LJ  0.34025922666703473   0.10643320425791561   -0.44221561417038585
LJ  -0.021813774509832386   -0.37271082712017484   0.37487437914446176
LJ  0.4745102129155912   -0.41528649312441651   0.24127760246485358
LJ  -0.38977060353491827   0.075620282046942405   -0.27419349915355068
LJ  -0.33307369099018613   -0.0072677899798251032   -0.059514443155504977
LJ  0.27825515893578184   -0.35082054261706369   -0.23108006176596546
LJ  0.32862994054374195   0.05049163059416957   0.076102328579745387
LJ  0.32986754680130204   -0.350702069147659   -0.33411404062003536
LJ  0.14280935318267596   -0.14661578878675446   0.4248265833496781
LJ  0.12351483582784607   -0.41998864280276893   0.42948532377419352
LJ  0.19479405288525672   0.23511579829691961   0.057396673558385736
LJ  -0.4397715759785471   0.02057054593331099   0.43316722906130845
LJ  0.33401734135399663   -0.10733831759326465   0.33882627293519696
LJ  0.4836168792198467   -0.46128734026806012   0.35284408837824044
LJ  0.43280359439715232   0.21722911642434539   -0.10324098896148258
LJ  0.26417479708393493   -0.004242722041621445   -0.37800091134689656
LJ  0.045218276053941187   0.46218936303727648   -0.0055246310899261493
LJ  0.00027043317916818912   0.37698671613512502   0.41116514270719179
LJ  0.23545407787324768   0.034535099658283046   -0.45972643897481857
LJ  -0.066491586295215233   0.25829786840972596   -0.28697727370570947
LJ  -0.038495557521490135   -0.18157084154271069   -0.36033444567699252
LJ  -0.30612291668586544   -0.39325439621056474   0.081240532173723123
LJ  -0.10436441131529636   -0.08883925236828237   0.29236833858255024
LJ  -0.10669022109907743   -0.32084616355493989   -0.43314411990407592
LJ  -0.16379620231164799   -0.27748313383482748   0.32773746904624196
LJ  0.3320147285924549   0.12481473230419009   -0.26730052505492263
LJ  -0.18587993073284945   0.1206925891692105   0.46654383497640978
LJ  0.28211617634202169   -0.45238804722210674   -0.20291125127123488
LJ  -0.23289078544396358   -0.43508603401829804   0.14891281963153044
LJ  -0.143209179184137   0.061547408415501367   0.39697511892130083
LJ  0.12406486899507199   -0.30391045407846001   -0.29279056663601
LJ  0.045007509050040376   0.24397444273062385   -0.088970139882732807
LJ  -0.090726045944674219   0.079740970210363651   0.30427328804073184
LJ  0.14363932589525369   -0.45123951692057007   -0.48492119070920758
LJ  -0.43142265542944119   -0.16839646628884092   -0.031582878331165562
LJ  -0.32186654773460383   -0.13652415110722577   0.47636194849816627
LJ  0.059966397995640026   0.17788492156842889   0.31854270290276715
LJ  0.34563525174586479   -0.021845557872112988   0.09765345129762637
LJ  0.42722207367159415   -0.26361557057655871   -0.33072764069236338
LJ  0.20784799533587806   -0.45374364343283452   -0.15051267593101889
LJ  0.43017603610244048   -0.47278273790649533   0.49283347879723793
LJ  -0.41123804555409177   -0.048528100791547041   -0.21709186064133509
LJ  0.24100141601985589   0.018729532017716623   0.26649658333500631
LJ  -0.37801311989819264   0.49788167640605258   -0.23972029408647635
LJ  0.05608793578563407   -0.12989072657548004   -0.065674215700335728
LJ  -0.19850388009716605   0.019041181875321254   0.24609369613085791
LJ  -0.44601783106123077   0.27922880755136509   -0.23867104746665035
LJ  -0.099776559843967799   -0.10323956600242011   -0.1553217817850186
LJ  0.11754934373723405   -0.11514002503692979   0.25100461557924919
LJ  0.32293146575406084   0.38510047742128906   -0.24499892432259363
LJ  -0.046410134957612183   -0.27832820203869213   0.31164064591953738
LJ  0.051780590731368585   0.415340927899087   -0.31241544856319564
LJ  -0.17647753027718882   -0.18487697922481783   0.042229607346611749
LJ  0.24030237231787599   0.21703446491942019   -0.0085765505373862141
LJ  0.25449304876525219   -0.018563683094650261   0.013004203428706075
LJ  -0.14362047659083305   -0.49198163531184386   0.037324860791776264
LJ  0.30726177537303656   -0.18708490679932385   -0.20051660544944774
LJ  -0.16538373991340546   -0.055035434758513059   0.174460621596429
LJ  0.27973745234737535   -0.39097077144189407   -0.14763474433611368
LJ  0.068304173732847626   0.48840114074117857   0.19512723914233326
LJ  -0.42434848724989571   -0.0094568022068142084   -0.38893758435007025
LJ  0.28502749550150347   -0.43087490724783362   -0.27799917474142144
LJ  -0.34270376871440994   0.13601625580885718   0.32686430275990574
LJ  0.30182826940111285   0.40741036646230921   0.32117193922932397
LJ  0.068166410618798218   -0.22511051413482133   -0.26591221910241802
LJ  0.098075507919639135   -0.28106211002525555   0.28798025009029993
LJ  -0.19828042911677346   0.24631416454570851   -0.28796808433472465
LJ  -0.29554132013157758   -0.16901523651676464   0.19494436336787879
LJ  0.29348916673500897   -0.1386297757396695   0.096345774990720542
LJ  0.17369090752188693   0.31861283320829786   0.068506117103305564
LJ  0.40237362383006897   -0.48533559710836194   -0.073693749112558465
LJ  -0.45737758388345884   -0.27671655371078452   0.49036277252009314
LJ  -0.26827080948607895   -0.22757735905507193   -0.16884560251675113
LJ  -0.10330179035014653   0.45278681582434072   0.21845940991276899
LJ  -0.30390302347051773   0.34275936520351286   0.45746755869125666
LJ  -0.46173942352528013   0.36522556456845823   -0.23158547259144879
