108
#Comment!
LJ  -0.43562443655264882   0.18458906075670656   -0.47197091950043263
LJ  -0.028774601885610842   0.12417348711967471   -0.48622541437681976
LJ  -0.32564282189021665   -0.42369775125893167   -0.4909794588635118
LJ  -0.48411396468597029   0.36149426116252414   -0.3785029857136879
LJ  -0.20360700393768946   0.25738825945361538   0.28472324297975854
LJ  -0.43988243608303645   0.4572050475212478   0.29270908312775712
LJ  -0.011976135189588689   -0.23106414428888591   0.33727232261321149
LJ  0.098925923787386336   -0.46217647866851902   0.39503022462162057
LJ  0.39467838932656191   -0.17865796355322316   0.36220797857501708
LJ  -0.20601711928836336   -0.25488281976845456   -0.30664029190971615
LJ  0.19257501458691612   -0.19371095289379639   -0.35836621630346122
LJ  -0.0088660674466636592   -0.30221609889253193   -0.38068232223597592
LJ  -0.38581595227920629   -0.21616824484936836   -0.43120219050231423
LJ  -0.43945726426906145   0.020185086555346139   -0.30839660768839777
LJ  0.18472778195068137   0.047457416963438262   -0.34601200753470152
LJ  -0.077113259289705818   -0.35017507586648966   -0.13572551639398919
LJ  -0.36290280645540329   -0.15627824277690186   0.15196000028632586
LJ  -0.032686624889789684   0.051419675410360882   -0.28300212453946127
LJ  -0.20693535122337614   -0.07406396755879871   -0.38051534653288105
LJ  -0.067671964407699417   0.25833621402155493   -0.26872880803815674
LJ  0.2070968935682683   0.17765173798554856   0.46809371725313692
LJ  0.037954865088095709   -0.095978670947159297   -0.48540419017159109
LJ  0.20055761730841146   -0.073612807026497751   -0.17421697453020776
LJ  -0.21544069481543127   -0.24580928630751897   0.0087905238946502148
LJ  0.40213842711607545   0.34400543636034547   -0.21252207420940333
LJ  0.37926570665534465   0.19580580698493275   -0.3797929455220429
LJ  -0.31525606871219408   -0.41781425345512535   -0.051964907194537252
LJ  -0.072293203989657134   0.44275944586457544   -0.10221285235863907
LJ  -0.23887763976199258   0.11933093254617509   -0.32031036369506738
LJ  -0.24460380118543601   0.10955599163384901   0.45904355860327856
LJ  -0.44002992493397086   0.19600347970977583   0.31584096232613185
LJ  -0.034507250889933762   -0.15030655289781863   -0.050433744746803948
LJ  -0.12152587336597728   0.31588763096404054   0.49129788796173424
LJ  0.17771423120099031   -0.26755652899688609   0.44725476624523036
LJ  0.2070977074855973   -0.40055353182597386   -0.38389462370769389
LJ  0.29852055416740586   0.40216531613595408   -0.40912880473133251
LJ  -0.21723726367825924   -0.45766805572745362   -0.27341584989040452
LJ  -0.19255006469260963   -0.091396669284773274   -0.17315749331013741
LJ  0.42729450036572869   -0.34312344615258117   0.19871495611268231
LJ  0.37432283372950692   0.40960170339911761   0.21811443009427911
LJ  0.13461540802997057   0.34604857283316481   -0.1243967709060691
LJ  0.1935628364538779   0.23995184253417731   -0.29863135849132866
LJ  0.024806198824173238   -0.31293264889852607   0.12722527023461522
LJ  -0.1929577541944229   0.3885633449002816   0.070694849191403564
LJ  0.098845450794827067   0.11577532746670217   -0.13047071260680504
LJ  -0.37786613821935139   -0.25738196711078049   -0.18105299784954104
LJ  0.1109685161889838   -0.44413592885515885   -0.039199709218209124
LJ  0.451029225758524   -0.4550637818073856   -0.11645913817382747
LJ  0.35098756620332983   -0.28899570240014072   -0.24100293891911664
LJ  -0.41110816159224878   0.21965173233061344   -0.24611257917266591
LJ  -0.43918261018634724   0.016306280366283933   0.023949670224678143
LJ  -0.35991055003034128   -0.11326486683720381   0.37339554092057708
LJ  0.066919287009439138   0.041187955314620141   0.34122688317106753
LJ  -0.22422822977632234   -0.039758983032362645   0.051190277326585425
LJ  -0.49039839809780117   -0.2669825592836258   0.015094633605483408
LJ  0.12326749575935064   -0.29938210772230051   -0.19502166115521624
LJ  0.23415272436582288   -0.49150720532337006   -0.20691365215859378
LJ  0.11614911512477194   0.10849195232840396   0.078033442568302108
LJ  0.37115527229964757   -0.087346102984798835   -0.3306220217556653
LJ  0.41960350217511688   -0.11774893327537347   -0.10362730280357611
LJ  0.26325261348174095   0.23571456034706478   -0.023540955887792394
LJ  -0.46442974458833786   -0.49555867912835905   0.079222727361176928
LJ  0.29676907230785404   0.44604951839676504   0.0068826214843186731
LJ  -0.43782857062422015   0.27794334897924028   -0.02993234440798357
LJ  -0.095006137434039004   -0.47835006455386309   -0.45487254426829099
LJ  -0.03413510865356064   0.25483223166308316   0.0055983565000310145
LJ  -0.25817669274968935   0.32808071868208089   -0.35381872746092852
LJ  -0.10243066813239514   0.077303572569425813   -0.086298272125919978
LJ  0.036735528306333802   0.49620524837479252   -0.28578437541652296
LJ  -0.36389729317030695   0.42860596205517826   -0.18768171649347731
LJ  0.17957461459592869   -0.46559581876564909   0.17030788710935257
LJ  0.00046681406121894692   -0.14733050997608829   -0.25183381206725619
LJ  -0.17852937795045595   -0.26261516762994391   0.2201164838327074
LJ  -0.37525140995224399   -0.35525448454203995   0.18939565500777689
LJ  -0.45987805201472653   -0.44149306523740578   -0.31845434715579479
LJ  -0.21641494454383733   -0.45437109964933453   0.3223625507527581
LJ  -0.3800125560521419   0.31323706587249295   0.16407802825689194
LJ  0.210405863495715   -0.25280744314961429   0.23576946540021004
LJ  -0.32906054499295306   0.35634828267709906   0.42664275306971211
LJ  -0.024248070940837162   0.43297642796003605   0.24989604413936875
LJ  0.042166552069166932   0.23656873689298788   0.34326044786931709
LJ  0.30728131042388124   -0.42287906255510888   0.35112031533519034
LJ  0.38032559681556993   -0.15787630483254786   0.12443694948915877
LJ  0.39042269606936414   -0.27420509579734526   -0.45253381873037951
LJ  0.43594338523821841   0.025181586613230333   0.28075466885496458
LJ  -0.29466112637110314   0.053139024584954224   0.26482525324521866
LJ  -0.4900677302030928   -0.03275522748694909   0.49650638311147316
LJ  0.23565227391790433   -0.03508214330870283   0.23485613664986899
LJ  0.022496895589184378   -0.089323652248183935   0.19195635762098284
LJ  0.16710986488721885   -0.11353200221795499   0.043313525104014608
LJ  -0.22514354867478376   0.2705305851273781   -0.12513718841415181
LJ  -0.17307909866813037   -0.26773949794107899   0.47272820657454084
LJ  0.27061079367976854   -0.28164267323517539   -0.044126649362754726
LJ  0.42866391163922057   0.12221095356823997   -0.13919252361234488
LJ  0.32509910639760259   0.032800477970297642   0.030384624317369956
LJ  -0.44058428296726476   -0.31702642788315899   0.3835346871727936
LJ  0.43360313883391999   0.21220651353058798   0.14338805306623661
LJ  0.46683438347021722   -0.46501851513874276   0.47703204744168665
LJ  0.38787276391828518   0.28738875081231507   0.40388690595022569
LJ  -0.13585719160521789   -0.051255046583588884   0.39260302208022885
LJ  -0.32030054176567363   0.075281016450750374   -0.13322612808904824
LJ  -0.097044637299230907   0.097764337992371581   0.18066399394716665
LJ  -0.25459546368705432   0.18672238676273048   0.066523044550770336
LJ  0.20811615330731781   0.36079437993872326   0.32587228028237308
LJ  0.23049452684857699   0.16334073630382959   0.24737410074359581
LJ  0.11576334688900791   0.33402936393521404   0.12486198929125775
LJ  0.071640908555514055   0.36995553675776427   -0.45592709152128102
LJ  0.26945907085089654   -0.0030800113271424292   0.4372565852089082
