108
#Comment!
LJ  -0.43546929939712553   0.18413865876873531   -0.47188261070365189
LJ  -0.02848717464150697   0.12415918658506939   -0.48655535525235205
LJ  -0.32605115688898179   -0.42374606514760199   -0.49109358691524019
LJ  -0.48418363095891914   0.36159721781885285   -0.37838818075902508
LJ  -0.20379318059840912   0.25725915579505332   0.28469795214268079
LJ  -0.4394590156547809   0.45697813569950291   0.2932467885120994
LJ  -0.012039572132958689   -0.23132916824365551   0.33747660589469147
LJ  0.098906047141154099   -0.46232236271501287   0.39486715213997542
LJ  0.39492324893055564   -0.17856018743191315   0.3625437436229792
LJ  -0.20577456206735772   -0.25464222873655468   -0.30627373358359639
LJ  0.19311224038400432   -0.19404073916064668   -0.35840635223094292
LJ  -0.0087147239365528428   -0.30235667236731395   -0.38090901934865967
LJ  -0.38587452244166359   -0.21577133967662607   -0.43143961893235633
LJ  -0.43918470820795902   0.020161899175768078   -0.3081209203996888
LJ  0.18483251107347051   0.047326219597212824   -0.34645500746669228
LJ  -0.077131485600111516   -0.34997458316251889   -0.13588140913807284
LJ  -0.36263951006461215   -0.15624217004881033   0.15197935215963182
LJ  -0.032711086526589071   0.051389734132139882   -0.28300319894862969
LJ  -0.20716614485682264   -0.074563903445220334   -0.38059281738821987
LJ  -0.06784109897984536   0.25870294157387946   -0.26856507691747672
LJ  0.20746214039952501   0.17774113641293401   0.46846241383956055
LJ  0.037754451270329101   -0.096045083813152632   -0.48566634080282739
LJ  0.20014270179667501   -0.073531137173914199   -0.17406752328141817
LJ  -0.21551091105004935   -0.2458089874965648   0.009056501038321587
LJ  0.40220021446014376   0.34370072164953902   -0.21274688831184213
LJ  0.37923748808849495   0.19568651221486974   -0.37979461996643538
LJ  -0.31513119998904132   -0.41770553136777755   -0.052247674298457308
LJ  -0.072246513923047026   0.44245282440921097   -0.10254357758325798
LJ  -0.23869794802418864   0.11943443464594176   -0.32077528353772106
LJ  -0.24455692312432567   0.10946246315958662   0.45864233599031951
LJ  -0.44012347674162766   0.19574570054607041   0.31599091650714956
LJ  -0.034587599100616914   -0.15047776680191216   -0.050592871868863985
LJ  -0.12168848275251351   0.31633807558712657   0.49144825543274934
LJ  0.17776234325986218   -0.2674082155668917   0.44744478163374513
LJ  0.20717381023789946   -0.40055802885214298   -0.38391054868804775
LJ  0.29868821401068446   0.40184706472600346   -0.40939898390405793
LJ  -0.21704487682349669   -0.45758431808896177   -0.27363081858073862
LJ  -0.19254660229517154   -0.091100136818327834   -0.17320489743203285
LJ  0.42745306930960852   -0.34367798253923026   0.19834177924100749
LJ  0.37444006378631878   0.40943576842640339   0.21877349369063162
LJ  0.13514071105850733   0.34590503276031087   -0.12424513286768091
LJ  0.19332400168955771   0.23981593906334756   -0.29897659794478698
LJ  0.024665574159534048   -0.31277285388064696   0.12724141589834742
LJ  -0.19314501837237019   0.3887993836502161   0.070975245923233454
LJ  0.098654235015824432   0.11585912815270101   -0.1305674387419008
LJ  -0.37783857026122242   -0.25721441417291435   -0.18125924736477747
LJ  0.11109285239497377   -0.44442596184945188   -0.039401063293042618
LJ  0.45108053827312855   -0.45504728774830405   -0.11618891573098036
LJ  0.35117063927084446   -0.28903787988200502   -0.24110483665045088
LJ  -0.41143314618143439   0.21978415735415935   -0.24608115396036226
LJ  -0.43876068933994128   0.016364530183660988   0.023848370156514101
LJ  -0.35989234513903645   -0.11305520343132455   0.37312282761843069
LJ  0.066755286112238757   0.041483815317426488   0.34120003731744808
LJ  -0.22433261317121272   -0.03948666312697903   0.051246591775013846
LJ  -0.49043893367080693   -0.26696882284084672   0.015061363088950491
LJ  0.12317469845245281   -0.29956277406434628   -0.19475485821590829
LJ  0.23411760723368111   -0.49159094761849215   -0.20713655111464102
LJ  0.11657594529430911   0.10833889148701319   0.077803739048872125
LJ  0.37095669160247979   -0.087098669801863954   -0.33056286578039001
LJ  0.41970675915948863   -0.11766294281746065   -0.10332920619620627
LJ  0.26309688617823057   0.23580941691482035   -0.023506563706901365
LJ  -0.46447445123885983   -0.49517025897273326   0.079149357384124777
LJ  0.29669287841894737   0.44594462091213838   0.0072703395061606436
LJ  -0.43757269487907269   0.27786711519521279   -0.029473166437750928
LJ  -0.095261700493605481   -0.4788827975448598   -0.45502550486554466
LJ  -0.0341945824593647   0.25487023635244949   0.0056523104938226215
LJ  -0.25842831506214775   0.32804452083510949   -0.35330752641117263
LJ  -0.10279303370697435   0.077296773875859814   -0.086076191283573453
LJ  0.036828808198376375   0.49597588894443129   -0.28575293767899901
LJ  -0.36369632438741256   0.42918233440659082   -0.18754337130323784
LJ  0.17942903291209283   -0.46569480591763135   0.17043431301903986
LJ  0.00042172630365772443   -0.14717274321355658   -0.251596628005755
LJ  -0.178496247310485   -0.26236032078351607   0.21980664404094477
LJ  -0.37520913352274216   -0.3548167884648093   0.18929827227932924
LJ  -0.45959241901050135   -0.44143789190074262   -0.31869384043425297
LJ  -0.2165267388637438   -0.45434972350292446   0.32197406669591427
LJ  -0.37998937519331416   0.31348903932296845   0.16420539993759989
LJ  0.21017306489367399   -0.25286728918132523   0.23583044389989291
LJ  -0.32915141726359004   0.35636648324703574   0.42646625657213572
LJ  -0.024186444741682522   0.43292366708173996   0.24997383572126092
LJ  0.042220307814652198   0.2366430097293645   0.34316756082357325
LJ  0.30756553089523869   -0.42267424803343501   0.35054159247869443
LJ  0.3801908194657197   -0.15797660518314108   0.12460038915814664
LJ  0.39005439265987485   -0.27467051264808229   -0.45263170484098836
LJ  0.43582533084669656   0.024966911580762995   0.28074165581070804
LJ  -0.29447512895602895   0.053259194309779927   0.2650078109994119
LJ  -0.48988756501502073   -0.032863467352663829   0.49653340351899877
LJ  0.23552541685299846   -0.035380365673881725   0.23505652465926041
LJ  0.022514846253630406   -0.089155227510997859   0.191716417041914
LJ  0.16660714064315604   -0.11363506667459318   0.043245253116511548
LJ  -0.22502525706856233   0.27020584299466027   -0.12515677658685634
LJ  -0.17330867265075633   -0.2674658815550835   0.47286494595121614
LJ  0.2700472523631674   -0.281740339837804   -0.044005432510858714
LJ  0.42874932098737423   0.12241876270172511   -0.13923378349351229
LJ  0.32473458165589114   0.032609804954193355   0.030476746650632984
LJ  -0.44089955411153953   -0.3172128149192186   0.38371191761355111
LJ  0.43361286711783892   0.21232164805795128   0.14356455890263242
LJ  0.46722511323520205   -0.46490489660712053   0.47711077076898645
LJ  0.38787762705957807   0.28775778971475097   0.40390288903376093
LJ  -0.13537943878430725   -0.051616839798538892   0.3925060198204095
LJ  -0.32018276686502051   0.075648530462458591   -0.1332200795732551
LJ  -0.09711299966440852   0.097686121165176068   0.18052024579831069
LJ  -0.25464510533210771   0.1869657574748072   0.06676606459994211
LJ  0.20808850981534427   0.36065925560199585   0.32603424246849999
LJ  0.2304398200503894   0.16353717262867445   0.24704902492559183
LJ  0.11597415748958163   0.33389620877227011   0.12499115731921739
LJ  0.07154350624103277   0.3699118548472019   -0.45625238221070952
LJ  0.26904306731424921   -0.0027467760858323059   0.43758858009551804
