108
#Comment!
LJ  -0.34497630028901582   0.12082709601365897   0.13613797739336711
LJ  -0.39475504180340537   -0.12896349814749922   0.17337580108245254
LJ  -0.20785842624013326   0.093354355350371704   0.44869920264567015
LJ  -0.099130510764255206   0.34128305678396204   0.43379124983404505
LJ  -0.25750151063784171   0.33060536462561763   -0.0016157236365361824
LJ  -0.23449395345330704   0.09068960582653976   -0.15356887707057124
LJ  -0.18065249887506829   -0.19760314411969759   0.0055909272523682503
LJ  -0.11199080597897729   -0.043468313192616417   -0.2037756639428249
LJ  -0.28258101734349883   0.42116698876901965   0.27279117423440191
LJ  0.42245557877032736   0.38636059409045292   -0.22527493555278219
LJ  0.10088215074163098   -0.22754508360445344   0.45377556768754651
LJ  -0.016462311708420864   -0.46894458817603107   -0.45794544480918259
LJ  0.28694570199763852   -0.12770804651504808   -0.45580075046104118
LJ  -0.16690884648376864   0.26866561414589735   -0.35823150861020198
LJ  -0.40417739819126297   0.45329279876784873   -0.39981494139998813
LJ  -0.12984751123057978   0.22212493309309375   -0.042493518134123449
LJ  0.18193524439080902   -0.13175437755704178   0.14152586742119538
LJ  0.49170501354112356   0.34575615838795704   0.33639296811980046
LJ  -0.11024381492928238   0.2985355878242888   -0.074445032214193047
LJ  0.15265930759279397   0.079988676000306555   -0.2773052945126524
LJ  -0.1002222752069731   0.3497006068255315   -0.36074100333335124
LJ  0.17619452002393091   -0.26285879356015174   -0.16856898873257292
LJ  -0.12805616147755713   0.0038013815420660777   0.20667860151178788
LJ  0.19086102928796925   -0.04471464186611155   0.38128093257096335
LJ  0.25978320285371198   0.40846142276035641   0.035068070622194601
LJ  0.082902988134993597   -0.422415571992318   0.26746821707270269
LJ  -0.17371616481819346   0.49736425105955684   0.094565120876400996
LJ  0.071642465155539112   -0.19039820116280554   -0.42463421329751122
LJ  0.48540343097978489   0.023804368740901336   0.28482023874053464
LJ  0.014570463063440387   -0.094602116912999315   -0.21082024370552452
LJ  0.18470107300929045   0.34812645182883151   -0.27962315981509489
LJ  -0.33403814329895226   0.1626943244005645   -0.041315184290838532
LJ  0.27790239387328747   0.18793117284098926   0.060239094569773013
LJ  0.21671248601581081   -0.12799122270985439   -0.39133028911345935
LJ  0.010059417232233308   -0.26363806965267167   -0.2913190164440625
LJ  -0.34835280334624324   -0.21210687594636693   -0.16656456830146735
LJ  -0.49627661616213298   0.42387646860837697   0.35801575317728218
LJ  -0.19189631420648665   0.02015246847277833   -0.078871976582551614
LJ  -0.48097277991584991   0.33815762777486369   0.4858749652137323
LJ  0.066223683295721744   -0.33910799708950495   -0.33124044888665888
LJ  0.47178631532947302   0.20707588500564131   -0.095017363953311784
LJ  -0.41597421075314073   0.18100030168842932   0.38647737565852219
LJ  0.19834566435165588   -0.12522961414561551   0.44618052341141395
LJ  0.40471886805895152   0.46955410603526088   0.17056850272433266
LJ  0.48881309821991537   -0.47004687228201414   -0.10035069376632526
LJ  0.25588238471091762   0.22826028518067601   -0.38243440010886531
LJ  0.13852514543725919   0.18920322175494683   0.39880855351968136
LJ  -0.25383031751724011   0.21287483373167215   -0.23346685972607278
LJ  -0.47057960665776938   0.26177285092602437   0.14566895419343545
LJ  0.44667914825950472   0.05379007686094147   -0.044312714512054117
LJ  0.49386129823826597   0.33406815074602514   -0.23166403907748484
LJ  -0.084428729282733136   -0.18079068034259388   0.065674641293213834
LJ  0.28471161263494105   0.31712954599911664   0.024801439625311526
LJ  -0.34418023201676023   -0.012513260809083769   0.22535631078660254
LJ  -0.15408135060933648   -0.31791867635374643   -0.038002410401254072
LJ  0.13928256283213347   0.36156352769535077   -0.1926448349912431
LJ  0.39319728709992929   0.32013557321102554   -0.027317549779930131
LJ  0.21321953464047275   0.38048819690528518   -0.062615766013137314
LJ  0.43584893986482981   -0.094606416568723734   0.28508180754765627
LJ  -0.017327840672809878   -0.18046312282951446   -0.32556400592328649
LJ  0.10163018397882881   0.25208702536955535   -0.46389272030631545
LJ  0.12825170312702458   -0.3494179885471162   0.32984221660870727
LJ  -0.33563063826233863   -0.0063959242183552062   -0.27115797090019977
LJ  -0.1087376940707948   0.32070732221872722   0.13654334087259898
LJ  -0.088284474064451557   0.037009126723411181   -0.10666510008860004
LJ  -0.045255188055007688   0.23105265603532904   -0.43423230024706966
LJ  -0.35016159574073802   -0.34900056440208871   0.48145474889984696
LJ  0.28326150684769003   0.15526365666406386   0.30776937915783154
LJ  -0.0098264432455390308   0.038573257077934013   -0.12611372049437228
LJ  -0.040816236326751951   0.00045341249101743232   0.38647457304340382
LJ  0.42689416844489003   -0.45888161865366406   0.1274933530338917
LJ  -0.065174599998516408   0.17642220652731311   0.41427016544559092
LJ  -0.32008249613324763   0.19466444254862464   -0.33278859818990214
LJ  0.005203477344301999   0.46528549175967848   0.2227374148702545
LJ  -0.43804911317439937   -0.0419328474650245   -0.10202590825171397
LJ  -0.1938779267449183   0.29980195567643331   -0.28695522530082768
LJ  -0.46632780512205835   0.49500414643680346   0.49696077151314588
LJ  0.49256264624194784   -0.32206553900373508   -0.17113026794419534
LJ  -0.36757444682276225   -0.45441143340464735   -0.49506427372797734
LJ  -0.30130417136908227   0.022673774512887313   -0.15062524997162025
LJ  -0.49897343319613735   -0.072555145551464015   -0.28506364399603945
LJ  0.23838258723186248   0.11613303777616696   0.15533844604002114
LJ  0.19444909139788125   -0.23434036604890679   0.40626541234748714
LJ  0.012233685812166672   -0.21149748971478929   -0.1523000579046557
LJ  0.43211234166228468   0.40213482996556627   0.4595486623804616
LJ  0.36900222391787646   0.46747383951284466   -0.058164343960592058
LJ  0.32674103017977718   0.42454960670661179   0.1839718120013859
LJ  0.48454783438130195   -0.34683898665516916   -0.3826375610255161
LJ  0.15638398607237117   0.24803093875905088   -0.38230558087489719
LJ  -0.18435782030083347   -0.43212791363764413   0.46685879537835678
LJ  -0.20114066681156939   -0.47936692972712902   0.16502355474830877
LJ  0.2210454927756644   0.1306018045313293   0.41338931497230424
LJ  -0.14131046894491311   0.023044875570798144   -0.28295483921231135
LJ  -0.30857802778900195   -0.20543214392554909   -0.33755728779421112
LJ  0.013746326258968003   0.25283653159036584   0.16181031390548994
LJ  -0.36596824714536424   -0.39591550535034586   -0.336575906050121
LJ  0.027435169769439861   -0.17623248716726142   -0.053530842273846156
LJ  0.10283198767158963   -0.11064395359507229   -0.10063833121307032
LJ  -0.22621074031816596   -0.031104891300513658   -0.16858221500307868
LJ  0.32565428751503539   -0.21082732595129264   -0.2714390663796557
LJ  0.40665196861375758   0.32776052156486862   -0.29116294703895518
LJ  0.00834832518408723   -0.30551675322438071   0.0018836498559168895
LJ  0.44902167120287201   0.32557508890776826   -0.14811562872390371
LJ  -0.26494232621985409   0.23026507333221577   -0.086639315287383653
LJ  0.43094635980377377   0.054398753650560801   -0.12837745165951708
LJ  0.18796748455348952   0.0015944108013377491   -0.24144488449415516
LJ  -0.19900351390357163   -0.20833930087672686   -0.14247968389240703
LJ  -0.4066159815671026   -0.35880142338977372   -0.12303342057912882
