108
#Comment!
LJ  -0.12936159079995643   0.46783668152269603   -0.18448473878033139
LJ  -0.28060056327506472   0.4715207733825621   -0.29545728565791968
LJ  -0.18031351772644394   0.44220343942529267   0.20847003109653151
LJ  -0.48739382195925685   0.21746212854736874   -0.41522341639465549
LJ  -0.2285916130720117   -0.30681232063164665   -0.25437486370778994
LJ  0.12697733373637865   -0.16220785917712843   -0.42674759973674398
LJ  -0.069309866650493393   -0.46606999324140069   -0.21018229859271362
LJ  0.34331881743955278   0.016496547397710684   -0.36227695738878896
LJ  0.45152022132372277   0.31017313625062654   -0.17127651414122499
LJ  -0.17733873728215024   0.17620842293152258   0.44367519521422555
LJ  -0.19921602678074196   0.3949207726902621   -0.14683826952506246
LJ  -0.10835172534962971   -0.24433395582353321   -0.40083041548706105
LJ  -0.18822837952504773   0.41841189266714252   -0.45512430806209903
LJ  -0.47506445148780224   0.20627731811371408   -0.30792980629345068
LJ  -0.060053555556438799   -0.49730749171730043   -0.31878542254696846
LJ  0.09386670466354248   0.32069537239314871   0.46539763914803506
LJ  -0.0021526367622201575   0.41144784873833024   -0.14513846484306034
LJ  -0.32635584985524374   -0.4998614607766137   -0.46884287357809429
LJ  0.13614489657435891   0.14259471986412695   -0.26627309897471646
LJ  -0.4036897183657156   0.05368426284128533   -0.078315669739777286
LJ  0.098586541140651768   -0.24745849413596471   -0.32242655363637368
LJ  0.07929352049033013   0.38466778378156985   -0.075493922040237485
LJ  0.17012863439800921   0.014112496337581151   0.035413548050930582
LJ  0.24470286969094132   -0.014598424068608803   0.49461652216458973
LJ  -0.18774626695293212   0.15106983338890514   0.14258859003726243
LJ  -0.39142027955815289   0.045512808296727138   0.087506648872219484
LJ  -0.24366425321544238   -0.33877273806965064   -0.39030686663156444
LJ  -0.086647869887251913   -0.055172997207950415   -0.040509137671518237
LJ  0.25033053593391852   -0.15469790582521606   -0.10324579128888987
LJ  -0.18811484558243835   -0.040941850739353018   0.083115283225065534
LJ  -0.23728793360679359   -0.40259228791962515   0.2048267693915421
LJ  -0.32091115542868343   0.035844756706383547   -0.086961689534414827
LJ  -0.27605856957622127   -0.11780035689038974   0.27834313839336583
LJ  -0.44405210627973912   -0.098468714228186899   0.45519126985859004
LJ  0.19970008876718393   -0.22220394874091901   -0.45649665206246626
LJ  0.45961057924882354   -0.40220670302744643   -0.091351560980228466
LJ  0.25099569302388075   0.025623509715507645   0.16614674937964327
LJ  -0.32303367531410454   0.081005420390946742   0.22645276538786099
LJ  0.041209990341107963   -0.17212168373484851   -0.016775373221520708
LJ  0.17957276764113073   -0.41186244150656987   -0.49096466052664184
LJ  -0.3384839796285708   -0.34682417426070455   0.45030409686856004
LJ  0.18589356497757617   -0.044947980032675319   0.10242700707974191
LJ  -0.394257289130933   -0.38531156484270473   -0.47714398002921088
LJ  -0.29176288515400345   -0.29130648952309435   0.48837215141420848
LJ  -0.039511599897473187   -0.1676318015998102   0.068002483221734036
LJ  0.46997942308684121   -0.43884253889310848   0.10686580462475892
LJ  -0.35331780566247856   0.037468085909556241   0.16590273116917129
LJ  -0.26934075557113257   0.49107057050608244   0.052729147113835279
LJ  0.30258473800718572   -0.039878812956089985   0.39242439172230681
LJ  -0.030076060781624638   -0.060606682345890957   -0.4355222301859677
LJ  -0.40929927866275512   0.19634421546650371   0.44652102532611565
LJ  0.055167846600721125   -0.10998572952639286   -0.33120916693487812
LJ  -0.35757712617312143   -0.37282459572442128   0.15578479229735201
LJ  -0.11799563623261922   0.096287140087634795   -0.028808696831266002
LJ  -0.24018874380967867   0.48382484128691677   -0.44522047603926412
LJ  -0.0035724117871584271   0.44987338684848244   -0.39553534696163867
LJ  -0.048356553868167   -0.08848528254750096   -0.34080737036718611
LJ  0.35344048150665702   0.12136279223177569   0.23289187098157066
LJ  0.49164117368507282   -0.29399225760231013   0.14634337672529385
LJ  -0.25810698192940107   -0.17935987154393779   0.18759968631216636
LJ  0.27042204118759861   0.44337034839544831   0.31086684377798512
LJ  -0.2499924111042186   -0.41637108092909858   -0.47885665056930332
LJ  0.22740864588886983   0.40647635089354761   -0.10465423754117661
LJ  0.008966419453012511   0.26011536086532039   -0.46045705901131512
LJ  -0.15950835223676169   0.1630546750374475   -0.028632327664704495
LJ  -0.33911324817210847   -0.026071207667129621   -0.027984296654383154
LJ  0.20337234245654454   0.41029724032333714   -0.26448487928928777
LJ  -0.11107668036776547   0.039918267041013041   0.34933862588082465
LJ  -0.41117200946969368   0.29579815895060541   -0.0093453895638476673
LJ  0.12708250508131347   -0.47092671406574771   -0.13277273192900355
LJ  0.31263635092449288   0.049388597030354787   0.26078182668373895
LJ  -0.057048161316655334   -0.12132870942385546   0.014545171720644129
LJ  -0.28574328229863982   -0.31950531367237228   0.054877038627218641
LJ  -0.20057472008460422   0.094345182429267677   -0.3972814627874191
LJ  -0.41420826027563551   -0.24233079672845409   0.37828205496245859
LJ  -0.48499071609707189   -0.2031810176372672   0.1780502498460578
LJ  0.12114497414626839   0.29710796540281387   -0.13359712282671807
LJ  0.17039631617311005   -0.16762796956238313   -0.14728904616213243
LJ  -0.0040504324213389885   0.28204120581222375   0.08092653825300021
LJ  0.049940988947533883   -0.17721861760937299   0.28734628928047296
LJ  0.13902893436150415   -0.17147154547207133   -0.34054206499735973
LJ  0.41817119008932568   0.25487380460612152   0.24709428157733038
LJ  0.31476009315857117   -0.18568646243742187   0.19048970283163441
LJ  0.21420330021802453   -0.16817211505452093   0.26492483165104658
LJ  0.19983791511284574   0.18899816862195415   0.40400601976091843
LJ  0.27059062021138675   -0.19832745561331808   0.065415498632372934
LJ  -0.24203782076867161   -0.082034342052247508   -0.23085745250127113
LJ  -0.27978831838603968   -0.4571888329007921   0.17257001602545816
LJ  -0.41697745990334167   -0.17808869615443035   0.11489836079853737
LJ  -0.20753845177936947   -0.40542256701079799   0.35105871955172774
LJ  0.014442668598304721   -0.46806850359474739   -0.12151970447184672
LJ  -0.022524253800549433   0.085264225845838232   0.077901178858459194
LJ  0.34879001641378909   0.41336504096953752   -0.19018988556077215
LJ  -0.31445726181923161   -0.41763166865440099   -0.13141340451233696
LJ  0.13886930256162253   -0.29887685524400892   0.2767378280672439
LJ  -0.066047945428333518   -0.14612341275113089   -0.40433278317853244
LJ  0.43680669488731105   -0.42882236327262929   -0.3910865911462707
LJ  0.042458286821893905   0.19132404664108876   -0.15025451032030027
LJ  -0.22370367649009618   0.41050575209058027   0.37951329360006864
LJ  -0.49971931023967642   0.46369913384913114   -0.30800162066323716
LJ  0.26673674123396801   0.13394953703097112   0.24012678349470648
LJ  -0.13363804782801572   -0.15552244526803571   0.0790276870795249
LJ  0.23819473230126734   -0.26517268536472072   -0.14519515371540789
LJ  0.068814501914031351   -0.36887479610070895   -0.08152087993911114
LJ  0.31423145319517959   -0.108678431905204   0.11814364531058771
LJ  0.41632687002324814   0.1093012108480314   0.11318807033433714
LJ  -0.19745334714030111   0.174402765287546   0.23220053306836891
LJ  -0.33013004242055732   -0.0073839815787314945   0.086926928459264946
