108
#Comment!
LJ  -0.12898409705350811   0.46801858662005236   -0.1843862945124175
LJ  -0.28077122632867141   0.47122084646832668   -0.2953897749908232
LJ  -0.18043161774119157   0.44230144733718729   0.2087095901236484
LJ  -0.4873878750226931   0.2175148178877874   -0.41520890204344407
LJ  -0.22865675802702951   -0.30670019181724872   -0.25439880660173619
LJ  0.12661911179263494   -0.16190861604564663   -0.42670013986084077
LJ  -0.069466225073300136   -0.46582889359774643   -0.21025937296245625
LJ  0.34304639408185811   0.016578930452631084   -0.36236215406704836
LJ  0.45191516053134928   0.31031601340581544   -0.17096543409964574
LJ  -0.17740209799267828   0.17603222590605383   0.44383675200122713
LJ  -0.19937911288315999   0.39454970647783594   -0.14696703478698381
LJ  -0.10841904394889118   -0.24468774696976633   -0.40089231715963269
LJ  -0.18816762722542354   0.4184906657098591   -0.45504016451444063
LJ  -0.47509530721946119   0.20628033272550195   -0.30774317852818445
LJ  -0.060195905029307141   -0.49729635187767146   -0.31871671877618657
LJ  0.093613061763048858   0.32058260702657854   0.46545861384262632
LJ  -0.0022350767153955591   0.41126127053490263   -0.14525678583090837
LJ  -0.32628819611446819   -0.49978429768946636   -0.46912856951606513
LJ  0.13607860033763505   0.14247135726522581   -0.26647117089476363
LJ  -0.40385278045223905   0.053716371281179988   -0.078439112824982546
LJ  0.098589922089502222   -0.24748618565387254   -0.3222403525724073
LJ  0.079421453103383652   0.38431535078140822   -0.075366546433370457
LJ  0.17008556062187585   0.013763383067165283   0.035425180226292069
LJ  0.24491892042013033   -0.014597941266460733   0.49441766068270732
LJ  -0.18773912692017794   0.15095602857756202   0.14264483011884363
LJ  -0.39144088740357891   0.045769617668160831   0.087621998374847729
LJ  -0.24403192443974309   -0.33874327326166259   -0.39079429664325027
LJ  -0.086615106834691258   -0.055249399559191316   -0.040665354841791818
LJ  0.25027439312904676   -0.15450093717732463   -0.10311362669983892
LJ  -0.18817148893819741   -0.041022758232227556   0.083400146775665651
LJ  -0.23702361990741658   -0.40226790486442926   0.20479746412893038
LJ  -0.32074981874698294   0.035816376410358945   -0.086802999845901674
LJ  -0.27646730143560272   -0.11773711387126433   0.27845679139726909
LJ  -0.4442075123445321   -0.098563327236853515   0.45556473319956314
LJ  0.1997948878169081   -0.22198703524090435   -0.45656353141294909
LJ  0.45964562438756712   -0.40219948008332496   -0.091182661576097113
LJ  0.25106399064278517   0.025895263579055319   0.16634552883753415
LJ  -0.32285538704013544   0.081281823345775245   0.22623718254052994
LJ  0.0412173751272078   -0.17206066299461761   -0.016863634386456803
LJ  0.1798491625714489   -0.4119270632497698   -0.4912520342560166
LJ  -0.33823194625784214   -0.34686909624184081   0.4503205199200746
LJ  0.18565737021447504   -0.04494372919599339   0.10245933134460276
LJ  -0.39424024531736529   -0.38534486864994932   -0.47721650640913882
LJ  -0.29174131561173711   -0.29129390863387972   0.48858319643343529
LJ  -0.039558916344777817   -0.16760547422420152   0.067700569933903748
LJ  0.46977739667917129   -0.43884152527539733   0.10695833281061279
LJ  -0.35336947970266014   0.037535407943249423   0.16587515171370498
LJ  -0.26941357038697733   0.49070134892584283   0.052687206065435657
LJ  0.30257256269617205   -0.039913149813429201   0.39214256381414792
LJ  -0.029900123848765763   -0.060377763703370745   -0.43531021326062314
LJ  -0.40933401477622178   0.19636841102851746   0.4462565192057828
LJ  0.055357494820653122   -0.10972338381611553   -0.33132800457090111
LJ  -0.35766435352066217   -0.37265411066064907   0.15602316358544388
LJ  -0.11774850844135094   0.096288474367472399   -0.029006969637064721
LJ  -0.24017295481832096   0.48378399828316337   -0.44537746055824373
LJ  -0.0033424153984069247   0.44994804991327625   -0.39542672831340064
LJ  -0.04843498931601796   -0.08845955850822311   -0.34063849972040749
LJ  0.35358044824271867   0.12161554514653404   0.23281932185669491
LJ  0.49152813914200666   -0.29426148124111168   0.14615881574212389
LJ  -0.258299474264027   -0.17899996399032636   0.18767531108547919
LJ  0.27013724716509224   0.44325567025886814   0.31077837509130724
LJ  -0.24998335009274503   -0.41620775032502599   -0.47869452468701762
LJ  0.22732020715887094   0.40621591521544742   -0.1046564970063418
LJ  0.0088739077499751205   0.26016619772478283   -0.46033548678505931
LJ  -0.15968583040409387   0.16302824545816411   -0.028860353404904313
LJ  -0.33910282786543733   -0.026334509145182355   -0.028131014044587146
LJ  0.20349903708573125   0.4103296498813091   -0.2644981286518101
LJ  -0.11124799670639379   0.039518290095408859   0.34932175025061424
LJ  -0.4113286085011027   0.29568426752330407   -0.0090785835574386745
LJ  0.12683183948017648   -0.47084632800469534   -0.13281090635550147
LJ  0.31287340990622897   0.049308365630429368   0.26105933948877708
LJ  -0.057056955258814303   -0.12128896837687855   0.014496752080869915
LJ  -0.28583191700144189   -0.3195390807483845   0.054506244160117623
LJ  -0.20045605380854128   0.094699099324116492   -0.39729462978823088
LJ  -0.4140161458793955   -0.24249545060037192   0.37830548607330328
LJ  -0.48504097846286115   -0.2030198887697636   0.17815580468778383
LJ  0.12120333959929626   0.29713332497732936   -0.13364149980122525
LJ  0.17051586725485787   -0.1675723546923269   -0.147325991479625
LJ  -0.0041452735135955867   0.28241428317156259   0.080809836324347795
LJ  0.049826597995423473   -0.1772008313345059   0.28774583909219592
LJ  0.13921372735201226   -0.17175596373687649   -0.34086590409722556
LJ  0.4184681492014411   0.25480506005558351   0.2471266482072369
LJ  0.31507150640145681   -0.18586483215436628   0.19027117140621233
LJ  0.21438845106267848   -0.16816578751202252   0.26468603725089929
LJ  0.20010252268641546   0.18875677291493892   0.40397004508617335
LJ  0.27087239596480162   -0.19845171353373489   0.065643575077845753
LJ  -0.2422662656531504   -0.081779420393736785   -0.23101963666233261
LJ  -0.28003298833100787   -0.45740826676997709   0.17269464941933052
LJ  -0.41702667881526712   -0.17788714440337208   0.11500683119479417
LJ  -0.20753912348173909   -0.40577464711913847   0.35082000614030445
LJ  0.014296218647362883   -0.46791079232886218   -0.1212450366191385
LJ  -0.022379681134797269   0.085386271918504175   0.078227669579987294
LJ  0.348956931617527   0.41321856392578266   -0.19036585224558253
LJ  -0.31432957531596628   -0.41757797988927764   -0.131448494413867
LJ  0.13899190364133943   -0.29906682484125519   0.27695383819438701
LJ  -0.066211115157455661   -0.14627356433599115   -0.40417952929611656
LJ  0.43656544556734234   -0.42886575987033593   -0.39140818104229819
LJ  0.042625768694745901   0.19150068320458324   -0.14999747783737669
LJ  -0.2241451934766642   0.41038047307201403   0.37929411550238512
LJ  -0.49968544910350926   0.463753121039442   -0.30811614131392379
LJ  0.26683664436151111   0.13393118357643294   0.24022777135129719
LJ  -0.13358004590451869   -0.15548438788477273   0.079474894059783405
LJ  0.23829004728283434   -0.26510478593658104   -0.14531699876432264
LJ  0.068852329478705482   -0.36875652294601619   -0.081441626521317992
LJ  0.31442200423460831   -0.10855373858017281   0.11809006903201551
LJ  0.41641430942259755   0.10949387783717543   0.11304027861214566
LJ  -0.19745491063359313   0.17421494985441652   0.23213897559500993
LJ  -0.33002244622804677   -0.0075440368125450153   0.086785368574637312
