108
#Comment!
LJ  -0.092101150360129946   -0.080891066012034316   0.24512937998632142
LJ  -0.21029109350386516   -0.21901195100850815   -0.30334378257293054
LJ  -0.38475018677951334   -0.3775754626834163   -0.32008921700726034
LJ  -0.12715005257389811   0.23963883778068801   0.40198806972422824
LJ  -0.20788092969598665   -0.27907034132220482   -0.029517374414803212
LJ  0.15420297054697313   0.38151705782994988   -0.34687117335045192
LJ  0.44773987276438892   0.2740084851389607   0.25288188764177039
LJ  0.0062641692322653675   0.12604767399327366   -0.4489363947174973
LJ  -0.31801416035334712   -0.063792590382282049   -0.20399576290554602
LJ  0.041878610542452697   -0.14075506376057456   -0.24936922191480898
LJ  -0.1578193868513165   0.024969668491019573   0.39984434249001621
LJ  0.30432937724416531   0.42767106122260318   0.37916724588480455
LJ  0.34328593087520448   0.47168087216608295   0.15930992380187647
LJ  -0.041555484132438279   -0.25939969021763537   0.085969798104155573
LJ  0.49307303556440274   0.1072223093463346   0.38238768357867964
LJ  -0.16577885936731077   -0.08788290056994813   0.02353724017244422
LJ  0.25836125988861147   0.24397349265906956   0.30274722949589872
LJ  -0.37317917805181672   -0.022656932824902259   0.44485009456315255
LJ  0.14374283474391397   0.32988745035028511   -0.12400717636034846
LJ  -0.39539457545606432   -0.23717988440487514   -0.14184999034327919
LJ  -0.30226571018680576   0.2083204790973669   0.25352173293880725
LJ  0.36529070017459569   0.079884853724629654   -0.37642349928813856
LJ  0.017153535597650208   -0.31225602827234034   -0.15580277139781626
LJ  0.23872420142276293   0.0076252809533083332   0.44364471714210185
LJ  -0.43347047042210368   -0.45007720249258698   0.4701732968155764
LJ  -0.35190587251639416   0.4058047787542623   -0.014946709950894321
LJ  0.086144434229616831   0.12045238924069132   0.28257991500104646
LJ  -0.23795350966431827   0.40341935251193739   -0.4834361420124314
LJ  0.39164717468810401   0.26756256890533775   -0.0088305036354955901
LJ  0.45359879741137243   -0.10569369042715032   -0.24416351862611071
LJ  -0.072808226966980402   -0.13803988460382849   -0.43409407270867378
LJ  -0.18137989945117672   0.076708720961117624   -0.1019317998019723
LJ  -0.1129463904441034   0.0057036740635604648   -0.27009112997681234
LJ  -0.3886114205774816   -0.12169102258292303   0.03174181655620887
LJ  0.43414414422494946   -0.31370469798860295   -0.40419534824386172
LJ  0.063624810154746789   0.33183263059000995   0.23434518822138081
LJ  0.47701638207037517   -0.41379131316658718   0.25767904430964461
LJ  -0.092180051722389245   -0.3522765838867673   0.25493888529051389
LJ  0.28281526708577043   -0.059315141592803274   -0.1379244501055146
LJ  -0.45669645220536836   -0.41663258054501384   0.023494969368255382
LJ  -0.29956111001583197   0.23212784065340511   0.041354861855433675
LJ  0.28591952139944798   0.054763600180051081   0.2287657934176836
LJ  0.27949308494184993   -0.1568495742701094   0.11355258408173395
LJ  -0.48266373717250172   0.34656429623934876   0.43077964803700286
LJ  -0.13672644399498762   0.36163173730311948   0.19636975299267159
LJ  -0.28261628427051699   -0.39765244058713967   0.18838568525108876
LJ  0.025500551706535146   -0.2864691198049138   0.41731318464968453
LJ  -0.04440257311705012   0.37959608241861881   -0.37535673278281556
LJ  -0.16767655504198795   -0.19513737775569978   0.40138870283248274
LJ  0.34563313240739296   -0.32744274025882658   0.067481271433539824
LJ  -0.4681868894566662   0.14932954420205086   0.10990549209741697
LJ  0.083485940718694196   -0.027359401840940246   0.14369339002424805
LJ  -0.40363935961609332   -0.22045352035887547   0.42282829862234445
LJ  -0.22324556011066782   -0.20093158137261466   0.19071091047656449
LJ  0.39327123936390673   -0.20362606665668206   0.26778612821813441
LJ  0.010263749814363553   -0.05655711797256651   0.40176672664436902
LJ  -0.4843835105847164   -0.052100489468073101   0.20285372575319954
LJ  -0.075668123948686272   0.45409269308648914   0.39629494570103885
LJ  -0.41810460368006591   0.25117031184008698   -0.16028516704372961
LJ  0.1406292672599678   -0.3151280201583741   0.16214427608538176
LJ  0.32591399119138542   0.48868480937247888   -0.070434750845577487
LJ  0.16047421574182988   0.023131495320665513   -0.36245059188231521
LJ  -0.29691122119428504   0.41844792359290761   -0.27656070445112335
LJ  -0.19655945719482409   0.228919107309595   -0.34118026437048737
LJ  0.39190823727679525   0.44420713891369529   -0.44243844802051213
LJ  0.41870282033433398   0.1224529713775878   -0.1449967376912919
LJ  -0.46042584586093566   0.29518403938429355   -0.37673476684774421
LJ  -0.010747689492562013   0.12027897503825441   0.015379762656717845
LJ  0.18084222219231894   -0.18459984568454482   0.31401245402123973
LJ  -0.25426486736637255   0.036541204548032273   -0.41681565064904097
LJ  -0.30764854042561968   -0.42930895144074233   -0.13680037982730284
LJ  -0.4206953417451984   -0.2437799884372753   0.17809889438027396
LJ  0.096216367608564904   -0.47932723125707982   -0.45796172431615306
LJ  -0.14304630791104206   0.30696834887384289   -0.092304910315636285
LJ  -0.14889875566562108   0.4966290296467144   0.041783075119545182
LJ  0.27101921960714648   -0.48539498979399909   -0.25436983865476948
LJ  0.12086832525521742   -0.2026924819918893   -0.031942680489470181
LJ  0.15970719725320964   -0.28000998104663577   -0.39695572876421636
LJ  -0.4210415866590409   0.43126466659557966   0.17664819231107753
LJ  0.30355485653793396   -0.14648772883444833   -0.39112284167840727
LJ  -0.098470936216793634   0.14320013212303465   0.19636537506972571
LJ  0.11689373944060713   -0.48542925016325028   0.28190085724845954
LJ  -0.23507151883114263   -0.36905551100233208   0.40367855671707742
LJ  0.41336094548228008   -0.10941742991109296   0.43785309652452797
LJ  -0.0034191607392729494   0.20289948525774645   -0.21940353215138242
LJ  -0.093133482268157972   -0.3997456764522091   -0.44896749376869771
LJ  0.42947645253760708   -0.33571387187163165   -0.17290087912650576
LJ  -0.41530085325529786   -0.12842721437857463   -0.40532281376776663
LJ  -0.29441204800310417   -0.0090170288901424908   0.24869834560199353
LJ  -0.43610675328310428   0.072089550862657586   -0.36458674980353739
LJ  -0.39482835572439751   0.070767722416274062   -0.052806349253418525
LJ  0.20914004228008207   0.13862605154343477   -0.20124683735369844
LJ  0.36456410910959686   0.22915786759170995   0.4813526502719318
LJ  0.15693148683047364   0.23821775592457464   0.47970839371222529
LJ  0.12236492089140263   0.4651252828249019   0.079722383868445462
LJ  0.3318611995684646   0.30866900803590941   -0.28532234856811767
LJ  0.23330832119925057   -0.25736314758990603   -0.20949900939511376
LJ  0.010747754851831092   -0.055650877615123287   -0.054479409437553937
LJ  0.24574533348213792   -0.36519598275327081   0.41410881079065881
LJ  0.20955021343098995   0.1066048660894527   0.022748005870411949
LJ  -0.34654956552168792   0.19347161824823014   0.47469200225064762
LJ  0.39253210847747827   -0.021401698473326437   0.041895462479879006
LJ  0.49913954556848522   0.44167256989183695   -0.20535733604112977
LJ  -0.0054311281448920466   -0.49665857370653055   -0.099460261138863096
LJ  -0.0020885458161298684   0.32177608821109244   0.047133135862497864
LJ  -0.12122016274135743   -0.42480671692894612   -0.24396185019194433
LJ  0.24629146707773175   0.29498395125837906   0.11162253639047169
LJ  -0.28106915242031461   0.39770625469828852   0.33113699717730366
