108
#Comment!
LJ  -0.091910272047862424   -0.08057656085089851   0.24491498387381311
LJ  -0.21053280096569421   -0.21911557539240695   -0.30328487718995722
LJ  -0.38457692110390296   -0.37738736417972857   -0.32045821688419296
LJ  -0.1272376591106219   0.23982326861581152   0.40215276986001469
LJ  -0.20808691609724894   -0.27872970876121211   -0.029053947853407914
LJ  0.15423892001977307   0.38117838456143277   -0.34688230533014319
LJ  0.44769159731247504   0.27389224842544296   0.25246771957026032
LJ  0.0060627823125028067   0.12617926034538365   -0.44894742143560445
LJ  -0.31845817696928141   -0.064211335973817465   -0.20387378733778039
LJ  0.041806391635117887   -0.14061192557584742   -0.2497577737115679
LJ  -0.15768019998205923   0.02526391572534856   0.3999461283880133
LJ  0.3043789988530522   0.42773233784492376   0.37939753407155691
LJ  0.34299350598142481   0.47159767052109797   0.15908643888359608
LJ  -0.041362589999526175   -0.2593297498952874   0.086499021820569053
LJ  0.49307182195764748   0.10704963302400924   0.38245708338376866
LJ  -0.16568796963031018   -0.087581053546715651   0.023623337834576947
LJ  0.25871635918599456   0.24389524912655786   0.30205485765360263
LJ  -0.373386153593875   -0.022747886551360588   0.44517632533377155
LJ  0.14370704013891791   0.32962172556396901   -0.12414725970083225
LJ  -0.39556287291957215   -0.23766423736266412   -0.1421822700287293
LJ  -0.30233799288372137   0.2083394073799778   0.25328276960992774
LJ  0.36533461830574815   0.079806575273452238   -0.37665129263542241
LJ  0.017065460150357887   -0.3121052646351643   -0.15618764643514227
LJ  0.238765519512322   0.0075622063052107882   0.44365535500980879
LJ  -0.43334802993578281   -0.44998565566951937   0.47024753581566509
LJ  -0.35173117777460194   0.40587320361242574   -0.014900565424479912
LJ  0.086165430009696425   0.12060354105655066   0.28276736483321924
LJ  -0.23773731827660818   0.40350574646727699   -0.4840329724945
LJ  0.39196740562466337   0.26785670960321167   -0.0090055544723399716
LJ  0.45379105527496094   -0.10575037827818798   -0.2442278105670514
LJ  -0.072799234168090171   -0.13823426271171285   -0.43393906967378304
LJ  -0.1810052945291242   0.076340132030456365   -0.10191538116840217
LJ  -0.11295574842707598   0.0057210904134119799   -0.26979302349359569
LJ  -0.38838895105543808   -0.12156544286866365   0.031771247167930707
LJ  0.43463021404546448   -0.31368239108887619   -0.40407539829000844
LJ  0.063668157136827871   0.33175827306355715   0.23452256668888569
LJ  0.47720357247793882   -0.41384922679469083   0.25772643975554743
LJ  -0.092110966578937692   -0.35190788590820821   0.25523129416300111
LJ  0.28285850310197796   -0.059538361645291187   -0.13784082144732313
LJ  -0.45649036878871818   -0.41677761401522423   0.023425775968726002
LJ  -0.30001642516276655   0.23186710550029821   0.041385805051282261
LJ  0.2859534422396327   0.054870847502977681   0.22863208044763925
LJ  0.2794573756476102   -0.15690138796436409   0.11357169086266793
LJ  -0.48283197006359324   0.34641218102033294   0.43088980116736791
LJ  -0.13667603798381314   0.36150067030225191   0.19636231161339962
LJ  -0.28279345938592471   -0.39773261147618827   0.18853683939012397
LJ  0.025749596180869902   -0.28643139724225536   0.41728267446732803
LJ  -0.044260202616278693   0.37955957579720295   -0.37543681589579175
LJ  -0.16756701169118998   -0.19538852767358347   0.40142540674392735
LJ  0.34580178545484591   -0.32730865974700457   0.067522239502397718
LJ  -0.46802836337736275   0.14912352799633918   0.10965668880367972
LJ  0.083335145397146593   -0.027265867430582392   0.14360260762260985
LJ  -0.4039134666538482   -0.22029039091879238   0.42311541003466907
LJ  -0.222953890060134   -0.20096745823783652   0.19086120857744246
LJ  0.39333987219455396   -0.20345797780918407   0.26765471220642895
LJ  0.0098506612545676206   -0.056363644749504879   0.40185408280463197
LJ  -0.48459058258685928   -0.051893029145009997   0.20294790643638255
LJ  -0.075608995588401659   0.45358123996023686   0.39623151296655162
LJ  -0.41816328171276484   0.25153733402964484   -0.16061385676000098
LJ  0.14068963315136229   -0.31529390577090893   0.16233596186801136
LJ  0.32615295308699094   0.48882730940299884   -0.07062593316431369
LJ  0.1603904907825206   0.023220269339739103   -0.36252942621830575
LJ  -0.29653553172502767   0.41850831173890635   -0.27647645322314501
LJ  -0.19643137816128767   0.22923177774435258   -0.3410549654687049
LJ  0.39209265514636599   0.44418431832940747   -0.44188295137140848
LJ  0.41860845211600001   0.12221700292876186   -0.14511762914625123
LJ  -0.46042215255013408   0.29529676606941885   -0.37658955119592863
LJ  -0.010689683141928042   0.12030433096688849   0.015532880896767194
LJ  0.18098246210393679   -0.18459881766850225   0.31392369707644363
LJ  -0.25474775765623736   0.036106451556125199   -0.41658362915083974
LJ  -0.30753339979260774   -0.42917948311268667   -0.13681342341919764
LJ  -0.42088665819645893   -0.24381520525872588   0.17833525652584856
LJ  0.096106092214352262   -0.47908405498482165   -0.4577536735628589
LJ  -0.14295093585097129   0.30680760136253971   -0.092315662766575823
LJ  -0.14850304225758379   0.49618488725895771   0.041599406648299385
LJ  0.27104039378393513   -0.48542399988977836   -0.25415844315871289
LJ  0.12094036790546536   -0.20225809042347004   -0.032082115465434331
LJ  0.15963292470601648   -0.28022776232116281   -0.39716848885105149
LJ  -0.42099899654065603   0.43089669431269495   0.17675618859275591
LJ  0.30356561155447331   -0.14627898732817593   -0.39099388735974216
LJ  -0.09818705444035826   0.14320034579302743   0.19647416657167247
LJ  0.11713027367777996   -0.48521629083294632   0.28207391970467088
LJ  -0.23517071110940785   -0.36930479430573093   0.40367972594937951
LJ  0.41337614544636142   -0.10899684146586948   0.4375674592778846
LJ  -0.0034046164125475895   0.20288612753992785   -0.21937096658496524
LJ  -0.093448926388358916   -0.39969713151388697   -0.44868347503454215
LJ  0.42931779284646937   -0.33571258086847766   -0.17291318664083544
LJ  -0.41576868683415275   -0.12830460625166284   -0.40557299888922832
LJ  -0.29453336178922629   -0.0094558398829117807   0.24867750728089782
LJ  -0.43627395031260546   0.072564604395574439   -0.36485835247423831
LJ  -0.39503884060566841   0.07101064377648339   -0.052723953755948433
LJ  0.20928106215977396   0.13846536962194181   -0.20125216121085363
LJ  0.36426183527758027   0.22925763987294062   0.48127095941005876
LJ  0.15669237502438332   0.23789001241610966   0.47976825292056308
LJ  0.12209189576384012   0.4647910071889747   0.079835473634515125
LJ  0.33160210677658547   0.30860121343983787   -0.28570255678900119
LJ  0.23316279681293153   -0.25728166779893957   -0.2095302237992199
LJ  0.010893420860707128   -0.055673886854356501   -0.054563620930563106
LJ  0.24582003148373024   -0.36515404277181923   0.41412857890909721
LJ  0.20952741105208586   0.10676807078429491   0.022551267244788856
LJ  -0.34633166037430829   0.1934965177535817   0.47445157081826084
LJ  0.39278827918691639   -0.021521221425421833   0.042067184624540704
LJ  0.49881418426502849   0.44179707739015245   -0.20524872349658538
LJ  -0.0056015724478973086   -0.49667315594267569   -0.099349355015349833
LJ  -0.0022430511866520903   0.32167980480637459   0.047201337901775275
LJ  -0.1210556270914596   -0.4248918120217326   -0.24393891424966491
LJ  0.24632406580188584   0.29517147780036901   0.11166993528204296
LJ  -0.28134204727915474   0.39797831931729472   0.33122253072351598
