108
#Comment!
LJ  -0.023888735175905014   -0.32191848989307814   -0.2407680268748788
LJ  0.16945263252190038   -0.36898286597493779   0.25048077996292656
LJ  0.3684711464049128   -0.16252316609387416   0.31472908832171309
LJ  0.24555056087913896   -0.29853641066130415   -0.32419602478036202
LJ  0.43144935888080832   -0.49905881252620821   -0.071275168726830776
LJ  -0.29446895005717905   0.075625969742197666   -0.052322866493490369
LJ  0.25311132369079553   0.33186287406268095   0.018614958063667236
LJ  0.14060590584868268   -0.23278154385193375   0.25242833753553845
LJ  -0.15957386076633809   0.34184464249137103   -0.33128013275420415
LJ  0.073930347661316217   -0.11265503769753663   0.28828503789986082
LJ  0.090669679194907718   -0.3194822226361968   0.21071939671603518
LJ  0.24830583799053907   0.49087204086499092   -0.0034685793220623211
LJ  -0.037219449939123461   -0.03279689348426755   0.11695416440869506
LJ  -0.44984395868051308   0.24928766021832263   -0.077940652265525934
LJ  -0.18136451355593644   -0.45384972151594621   -0.060722248372316989
LJ  -0.33142385669116031   -0.28239913744220596   0.36808506239572225
LJ  0.078483716116903954   0.0047914489862307874   0.42052929426922075
LJ  0.30805364174803074   -0.17019832420371678   0.14657996248267149
LJ  0.30621042274642718   0.050711299054112383   -0.43097020585791129
LJ  -0.18454144917892393   0.1688041007553383   0.10916008509335805
LJ  0.084719912284719021   0.053410235500155785   -0.32805810698312315
LJ  -0.41482763251100035   0.19215658198064944   -0.48163096028815505
LJ  -0.39905515915125211   -0.016118106953471076   0.064382716281385935
LJ  -0.21789464293654978   0.096686739025913182   -0.22156117083452301
LJ  0.34333397376769126   -0.36953323222218831   -0.008685618499686
LJ  0.2942378580942604   0.32438117722297527   -0.38575126532514109
LJ  -0.47339729194938834   0.31238191176608271   -0.018156205670892225
LJ  -0.49359533549213686   0.17747754231077856   -0.32342231517630432
LJ  -0.081431013337408015   0.27007354019038615   0.37581463002870547
LJ  0.29420556318737767   0.41144273532841963   -0.0585809447266573
LJ  0.1302152585198795   0.37678834515401749   0.21414135745825646
LJ  -0.048152680924213452   -0.25932686297544166   0.3178877744819526
LJ  0.024494529102021656   -0.0072371949857282262   0.29060749666750713
LJ  0.37933960150177781   -0.22528295839736298   -0.047708319507095122
LJ  -0.23902468570293578   0.46500477057681833   0.42411528716938579
LJ  -0.22830139211399922   0.43015453492122663   0.021035097447601375
LJ  0.15500854794253807   0.087767529724364995   0.39182034573825747
LJ  -0.15934488261727719   -0.071149151448802642   0.25005473594811783
LJ  -0.065802475253955731   0.36113515449064704   0.0531721743112199
LJ  0.20361558492903561   0.10357153672477888   -0.45193330450584629
LJ  -0.41227453665297936   0.21490047577608518   -0.20215364885566692
LJ  -0.24680752327842218   -0.22096630368414352   0.35191804359966694
LJ  0.10938795094527404   0.10969242518181228   0.20694740364347297
LJ  -0.04076004313114729   -0.13312606782664957   0.12787283450994033
LJ  0.10300214003266003   -0.042957177597212778   -0.2823629982972895
LJ  0.15895032136395171   -0.43628905609101831   0.022508938658919755
LJ  0.17423601455522283   -0.37097083777064654   0.39531683580297933
LJ  0.26849732777395158   0.43775181546645359   0.45997153800584312
LJ  -0.048659760851985132   0.420287153321455   -0.16595477609412587
LJ  0.19710760740227742   -0.2078021805696319   -0.34486656357517692
LJ  0.31947266314746536   -0.050955410492875698   -0.20195797834871218
LJ  -0.15055753390067925   -0.035761482532578014   0.060478186575406621
LJ  -0.020201281240867321   -0.097787752170504005   0.39388892114801605
LJ  -0.36690480481855681   0.14006800926682272   -0.44738859311163187
LJ  0.027831057385738572   0.19813775034098532   -0.088666573048835795
LJ  -0.15498844111086654   0.41980309682438782   -0.29822231394633153
LJ  -0.47101693951825852   -0.22905570374614001   0.46652612322141385
LJ  0.47977545781561975   -0.25330945456720105   -0.10213247350696686
LJ  -0.031703488101808494   0.4581017290210499   0.023818064095783367
LJ  0.078807673984646207   -0.28308169382609877   0.49474843197833684
LJ  0.13978818985318278   -0.28492755191454427   -0.18115891143558527
LJ  -0.067191756180696019   -0.337335808886222   -0.31088094642536651
LJ  0.075229445655448882   -0.029019819194071515   0.34955615366115533
LJ  0.02668565210375326   0.38557374633417574   -0.18827487261160475
LJ  0.45334334259735898   -0.20835860493073496   -0.23762920506944571
LJ  -0.1867152811020292   -0.26282708059706977   0.21506595456325978
LJ  0.09206110177821307   0.29605630384123721   0.10273413002627009
LJ  0.20931089188409044   -0.053381203564749492   0.4073164000736243
LJ  0.21186405564503494   -0.30658031231337202   0.16388981733171595
LJ  -0.44022682002826824   0.21919497948865227   0.40467677520113954
LJ  0.10357676117618295   0.40296308970955458   -0.27162416684996665
LJ  0.079289944832792697   -0.4485295630291371   -0.41520297804647771
LJ  0.26526468427382088   -0.31054685516429603   -0.4514443390252087
LJ  -0.064163656581950682   0.47920316444152994   0.20023599204202977
LJ  0.34639078993422018   0.089222195385657885   0.43467556062559631
LJ  0.035680018245135184   -0.079799490683118521   -0.16442685936276577
LJ  -0.062364113325398346   0.016335046856026894   -0.4826518609563426
LJ  0.34846634678297989   -0.19848595062228488   0.23127976978640574
LJ  -0.49469935049007935   -0.31682465027389078   -0.3557944946078655
LJ  -0.29389295800058984   -0.36931980177435153   0.35030912941012637
LJ  -0.38084736985400186   -0.4233028528636309   -0.30163251777547956
LJ  0.064257049648827072   -0.48737000890904802   0.32952297663984625
LJ  0.040408140937266537   -0.48195670678970315   -0.1988893950650156
LJ  -0.47215982063029099   0.16145827050803946   -0.0020452565257110702
LJ  -0.2147001051286945   0.25777169018153534   -0.22867108616409168
LJ  -0.4186819606193361   0.37286939432684785   -0.003280783417762076
LJ  0.34638131095532609   -0.15996352002468767   -0.48589818553679254
LJ  0.49626978814807937   0.24425375169936886   -0.3886728563862587
LJ  -0.061702937136233427   -0.096021473607210972   0.20720883128716777
LJ  0.19995152726362678   -0.13434724728443978   -0.37028883591509298
LJ  0.14332698815394279   0.32057833388922163   0.31846665159598714
LJ  -0.28093597191100361   0.37543791033847684   -0.25439995098407964
LJ  0.44227278493776101   0.013868549626576398   0.46758895164273229
LJ  0.29685300292747879   0.010928257231109496   0.40236046404738046
LJ  -0.096620208198701846   -0.11080922408840989   0.47223992625922129
LJ  -0.18022393869156925   0.050744954705097094   0.16366258751675233
LJ  -0.37463906787653878   0.40541919590924796   0.47308474218977897
LJ  0.27426279440987017   -0.27374629631435743   -0.24965293703438304
LJ  0.3946406286619174   -0.056708295728234819   0.24064833259414664
LJ  -0.48540893579839411   0.14702022460125685   0.36716455070869841
LJ  0.19386597005037953   0.38999357081758829   -0.07999457836721692
LJ  0.14433823684679917   -0.22813268148287297   -0.41651700555216203
LJ  0.38559944893119846   0.20185199110822313   0.47269581153197182
LJ  -0.49894320377173246   -0.2355245689185195   0.10965200824028325
LJ  0.40021118532598338   -0.39353331333831465   -0.40802102926265627
LJ  0.12952550290767498   -0.044397758792386784   -0.40726539735589162
LJ  -0.11602919253759283   -0.41203096535793643   0.16205340084681538
LJ  -0.26247623463578956   -0.30604458829037151   -0.043225536312921815
